%%MatrixMarket matrix array complex general
%
50 50
4.6914284359077013E-1 0
-2.0265619530203036E-4 0
-2.9807957842023377E-3 0
3.1684379945820917E-3 0
1.0222626118425245E-3 0
-4.508409571121026E-3 0
-3.7586758395363315E-3 0
-1.4633247491074375E-3 0
-1.4112947231092357E-3 0
-2.4418800487526183E-3 0
4.74261792843399E-3 0
-1.8218182397361576E-3 0
3.5597806601232827E-3 0
3.5597806601231803E-3 0
-1.8221288044602637E-3 0
4.744028101395786E-3 0
-2.4450477970062033E-3 0
-1.4069448965856241E-3 0
-1.465059968265898E-3 0
-3.769521986598898E-3 0
-4.460710573914982E-3 0
8.97737420833573E-4 0
3.4343847143360985E-3 0
-3.331492203481067E-3 0
-3.2445624714095563E-5 0
6.368976715123133E-4 0
-3.481948923714034E-3 0
1.3826221306168958E-2 0
2.150624604510813E-3 0
-2.4016343375557647E-3 0
-1.2407391012969398E-2 0
1.2160830538477843E-2 0
-3.2888504093709706E-3 0
1.7790060955831248E-3 0
5.6690360969742165E-3 0
-6.886491959834268E-3 0
-2.1094386698008415E-3 0
-7.997192755545756E-3 0
-7.997192755546327E-3 0
-2.119684540799476E-3 0
-6.8399688065932775E-3 0
5.552776395838929E-3 0
2.0016823434281738E-3 0
-3.6591532628899885E-3 0
1.2724656320218932E-2 0
-1.3217436601803684E-2 0
-1.3126406387980241E-3 0
6.91914945994574E-4 0
1.5374381104041206E-2 0
-4.413025863078504E-3 0
-2.0265619530202917E-4 0
4.836347211429067E-1 0
-1.6919779698369594E-4 0
-2.2025101418386545E-3 0
2.2628380264626685E-3 0
6.6611427541204E-4 0
-3.3850470868886425E-3 0
-2.8735227654585775E-3 0
-1.2416002687284193E-3 0
-1.2218407958387424E-3 0
-1.937901815613666E-3 0
3.3345287225038656E-3 0
-1.4658646615192253E-3 0
2.500719176429708E-3 0
2.3992431922119245E-3 0
-1.2581199207683795E-3 0
3.5911850481642176E-3 0
-1.6672291114954842E-3 0
-9.125309560309256E-4 0
-1.044083411403462E-3 0
-2.658247553127538E-3 0
-3.2703700674956383E-3 0
7.207798433278688E-4 0
2.475255677091534E-3 0
-2.3569266893084377E-3 0
-3.4819489237150657E-3 0
2.732610321014285E-4 0
-2.5424242812703162E-3 0
1.0079846839906953E-2 0
1.6006833655193397E-3 0
-1.680649588171781E-3 0
-8.968038816630844E-3 0
9.002328393150447E-3 0
-2.2078414816340897E-3 0
1.5236455590105383E-3 0
4.4304916027063344E-3 0
-4.887639754222103E-3 0
-1.6789918448538524E-3 0
-5.7864461892461845E-3 0
-5.514880742011228E-3 0
-1.6593795714473173E-3 0
-5.056781135822865E-3 0
3.8647242108287762E-3 0
1.4027195677699439E-3 0
-2.8297701211626607E-3 0
9.394130560854834E-3 0
-9.812127804334828E-3 0
-8.907727965833075E-4 0
7.765797684601654E-4 0
1.0916706832293033E-2 0
-2.9807957842023385E-3 0
-1.6919779698368684E-4 0
4.835973536234484E-1 0
-2.1885532423760693E-4 0
-2.265817881905207E-3 0
2.181697577049542E-3 0
5.604630011460273E-4 0
-3.5214058254351283E-3 0
-3.047337726695593E-3 0
-1.4477605261032597E-3 0
-1.5007942744533725E-3 0
-2.1654027602913484E-3 0
3.502293553412884E-3 0
-1.3404164231749422E-3 0
2.565518796167502E-3 0
2.5870619266758384E-3 0
-1.1820248115763145E-3 0
3.667320371776989E-3 0
-1.6535750684753135E-3 0
-8.366370460727415E-4 0
-1.065251711874429E-3 0
-2.5531419171437157E-3 0
-3.3671016976799984E-3 0
9.110530933181487E-4 0
2.4074424378545236E-3 0
1.382622130617037E-2 0
-2.5437488340385814E-3 0
2.975119110010139E-4 0
-2.511620279770333E-3 0
1.0120558542780864E-2 0
1.6593872967694192E-3 0
-1.5888674928752962E-3 0
-8.824744430750011E-3 0
9.22738898144244E-3 0
-1.9249020852742224E-3 0
1.8969952765300585E-3 0
4.452510464140866E-3 0
-5.389319740507342E-3 0
-1.6065304727546541E-3 0
-5.590396748940927E-3 0
-5.6502343289087775E-3 0
-1.6024596279138456E-3 0
-4.993609106880535E-3 0
3.8568975982784482E-3 0
1.491137333401763E-3 0
-2.9918801736351966E-3 0
9.62952529636546E-3 0
-1.0072059036775773E-2 0
-9.317573472132845E-4 0
1.2974340854993364E-3 0
3.1684379945820934E-3 0
-2.202510141838646E-3 0
-2.1885532423762056E-4 0
4.8353645055932926E-1 0
-2.9172510807866695E-4 0
-2.3543124930967543E-3 0
2.071366567335764E-3 0
4.2267204724663284E-4 0
-3.6957690329169194E-3 0
-3.252199789927193E-3 0
-1.6497080705269505E-3 0
-1.5152621761487055E-3 0
-2.1413583773460198E-3 0
3.609470378228365E-3 0
-1.1843352477076182E-3 0
2.532257237968518E-3 0
2.5273115734932286E-3 0
-1.2231845771682518E-3 0
3.681182933251155E-3 0
-1.6920612785066187E-3 0
-7.984709502089003E-4 0
-1.0859561631341606E-3 0
-2.498427691283589E-3 0
-3.418816602212043E-3 0
9.100651230138885E-4 0
2.150624604509502E-3 0
1.0075344184543616E-2 0
-2.5166177735375596E-3 0
3.301905675792528E-4 0
-2.4685263709223982E-3 0
1.0183044073196274E-2 0
1.755074082362405E-3 0
-1.448039616991402E-3 0
-8.618303820887937E-3 0
9.460070829266287E-3 0
-1.7488850911525783E-3 0
1.6394610462261536E-3 0
4.409706100801272E-3 0
-5.208228640469673E-3 0
-1.5150055159782706E-3 0
-5.504838112075815E-3 0
-5.350504458589344E-3 0
-1.4234844002304042E-3 0
-4.87006308094889E-3 0
3.896289394456556E-3 0
1.6168475503056943E-3 0
-3.207841852539442E-3 0
1.0053361112701104E-2 0
-1.044446344592727E-2 0
-1.1930208154571787E-3 0
1.0222626118425251E-3 0
2.2628380264626833E-3 0
-2.2658178819051885E-3 0
-2.9172510807868815E-4 0
4.8345494942842937E-1 0
-3.843582581572334E-4 0
-2.4636833724865736E-3 0
1.940317524860426E-3 0
2.580650900071823E-4 0
-3.888681935873331E-3 0
-3.4985492857320926E-3 0
-1.7910225655285317E-3 0
-1.5682719329640135E-3 0
-2.0414856269928795E-3 0
3.6232866807577088E-3 0
-1.053493910165788E-3 0
2.4723763259151058E-3 0
2.484731320232613E-3 0
-1.3098541890414943E-3 0
3.688209871871421E-3 0
-1.7384485840778148E-3 0
-7.850123114710229E-4 0
-1.0534351887597445E-3 0
-2.6280749498989644E-3 0
-3.431389151992395E-3 0
-2.401634337554809E-3 0
1.5918822591468556E-3 0
1.0108418172980905E-2 0
-2.476610043762985E-3 0
3.8164001703338906E-4 0
-2.398173872759283E-3 0
1.0281213114802807E-2 0
1.8826213983889908E-3 0
-1.2908118019810486E-3 0
-8.486082918674266E-3 0
9.618147480225445E-3 0
-1.8508626145633447E-3 0
1.557338040253999E-3 0
4.525342450242543E-3 0
-5.094549266522674E-3 0
-1.6296954267457256E-3 0
-5.241853767244267E-3 0
-5.15617720966255E-3 0
-1.2127081694266522E-3 0
-4.852906436412212E-3 0
3.998846435711345E-3 0
1.5929675021086726E-3 0
-3.2879734793818923E-3 0
1.0008908442994112E-2 0
-1.0174766283733578E-2 0
-4.508409571121029E-3 0
6.661142754120211E-4 0
2.1816975770495334E-3 0
-2.354312493096733E-3 0
-3.8435825815725356E-4 0
4.8335557803439805E-1 0
-4.977991776090938E-4 0
-2.596595755807701E-3 0
1.7795117474357029E-3 0
8.542244097752015E-5 0
-4.1191224799915944E-3 0
-3.549127017122039E-3 0
-1.756038841199384E-3 0
-1.495376910823725E-3 0
-1.7496153182187672E-3 0
3.7001341934179937E-3 0
-1.1518046828033841E-3 0
2.3747953903226864E-3 0
2.455913867189168E-3 0
-1.3847593233520604E-3 0
3.738252040886586E-3 0
-1.8118055049800516E-3 0
-7.303965077869028E-4 0
-1.06760962533528E-3 0
-2.8183497837229493E-3 0
-1.2407391012969953E-2 0
-1.693157488722511E-3 0
1.641430678052722E-3 0
1.0169088940009554E-2 0
-2.4031045691710945E-3 0
4.7170814340282536E-4 0
-2.288778887824259E-3 0
1.0404055978855308E-2 0
1.99421196404206E-3 0
-1.2624519954483175E-3 0
-8.5885048249174E-3 0
9.248212703762885E-3 0
-2.1958523966406646E-3 0
1.6114149575314585E-3 0
4.2171799104013695E-3 0
-4.95026541370935E-3 0
-1.331765011446813E-3 0
-5.029555246368311E-3 0
-5.09271486434903E-3 0
-1.0515047910834938E-3 0
-4.975701243537617E-3 0
4.230465746774072E-3 0
1.33116314656836E-3 0
-2.798141434393044E-3 0
9.559597784911092E-3 0
-3.7586758395363323E-3 0
-3.3850470868886312E-3 0
5.604630011460255E-4 0
2.0713665673357546E-3 0
-2.4636833724865433E-3 0
-4.977991776090784E-4 0
4.832250045658456E-1 0
-6.548668115854275E-4 0
-2.7785023775303607E-3 0
1.6069085784381665E-3 0
-3.763760025178326E-5 0
-4.0476291465563466E-3 0
-3.6333091139808204E-3 0
-1.7552227224493175E-3 0
-1.2898394143757582E-3 0
-1.6830627664269023E-3 0
3.6264088323331506E-3 0
-1.1683666394854872E-3 0
2.3331868041524617E-3 0
2.477169527468211E-3 0
-1.4508962703482554E-3 0
3.856106380677621E-3 0
-1.9275826157476364E-3 0
-6.388799527050822E-4 0
-1.1699821986948411E-3 0
1.2160830538478044E-2 0
-8.981009663629413E-3 0
-1.606007573957616E-3 0
1.7452697770768482E-3 0
1.0284304152824747E-2 0
-2.2788244910839327E-3 0
6.025774137074514E-4 0
-2.158236900997528E-3 0
1.0511173869163464E-2 0
2.0362455223554413E-3 0
-1.4829940530782122E-3 0
-8.853592095944718E-3 0
9.642107558949245E-3 0
-2.3710260342597322E-3 0
1.4708222753330152E-3 0
4.241162759394987E-3 0
-4.96979607594743E-3 0
-1.3171855022749512E-3 0
-4.956803057533495E-3 0
-5.1335921543175095E-3 0
-9.39159973521743E-4 0
-5.222123314305325E-3 0
4.495969852609352E-3 0
9.038541883855403E-4 0
-2.4744189930814304E-3 0
-1.463324749107435E-3 0
-2.87352276545858E-3 0
-3.5214058254351252E-3 0
4.226720472466348E-4 0
1.9403175248604E-3 0
-2.596595755807712E-3 0
-6.548668115854068E-4 0
4.83024683629165E-1 0
-8.925430723759671E-4 0
-3.010858615643869E-3 0
1.4277439076876186E-3 0
-1.7409170270647647E-4 0
-4.370528987312601E-3 0
-3.548101025171676E-3 0
-1.3489880220059643E-3 0
-9.724411203949981E-4 0
-1.5212091867551362E-3 0
3.702383771106984E-3 0
-1.1618964773058673E-3 0
2.3295109525375527E-3 0
2.5240588358201965E-3 0
-1.5014998970826208E-3 0
4.016152859249095E-3 0
-2.012521610697356E-3 0
-8.042319409132359E-4 0
-3.2888504093710287E-3 0
8.994129362792402E-3 0
-8.830362534532336E-3 0
-1.4376407462685366E-3 0
1.913948553832139E-3 0
1.0445517627059139E-2 0
-2.1291207342873215E-3 0
7.354722099802795E-4 0
-2.0348717058531283E-3 0
1.0648621487211633E-2 0
2.199749777121833E-3 0
-1.216924005236256E-3 0
-9.24637640795686E-3 0
9.39317018668821E-3 0
-2.6095384116284017E-3 0
9.454323037920173E-4 0
3.890130493533912E-3 0
-5.024791086682967E-3 0
-1.3143315710917338E-3 0
-4.9807886946967575E-3 0
-5.2423141017433495E-3 0
-9.082031154966826E-4 0
-5.535037057261832E-3 0
4.666753659870269E-3 0
9.408982762633929E-4 0
-1.41129472310924E-3 0
-1.2416002687284126E-3 0
-3.0473377266955915E-3 0
-3.6957690329169203E-3 0
2.580650900071885E-4 0
1.779511747435698E-3 0
-2.778502377530371E-3 0
-8.925430723760185E-4 0
4.827228305229941E-1 0
-1.2236836366482252E-3 0
-3.2896343803136946E-3 0
1.211853533248207E-3 0
-2.3834917579025315E-4 0
-4.117142201590037E-3 0
-2.96394486440621E-3 0
-9.521857945603013E-4 0
-6.786729029138926E-4 0
-1.4438440603834184E-3 0
3.732991790307607E-3 0
-1.208447322182261E-3 0
2.373733406019641E-3 0
2.5951414543219547E-3 0
-1.5275974861011085E-3 0
4.087828832983269E-3 0
-1.970600259946555E-3 0
1.7790060955831318E-3 0
-2.2069803037659164E-3 0
9.243245015658617E-3 0
-8.570641139891666E-3 0
-1.2090999418345025E-3 0
2.0904819031045095E-3 0
1.0583581672526807E-2 0
-2.0184844457171915E-3 0
8.35801273298889E-4 0
-1.877382464118989E-3 0
1.095545541520556E-2 0
2.402015950422112E-3 0
-1.4007773481333008E-3 0
-9.598383661401219E-3 0
8.426450713635378E-3 0
-2.903080732881486E-3 0
9.243412331883178E-4 0
3.953239717272956E-3 0
-5.078746601917747E-3 0
-1.3370685980823615E-3 0
-5.12639367262405E-3 0
-5.390076318196517E-3 0
-1.0326040083950762E-3 0
-5.6523432818820175E-3 0
4.5034371319133395E-3 0
-2.4418800487526213E-3 0
-1.2218407958387444E-3 0
-1.4477605261032584E-3 0
-3.2521997899271926E-3 0
-3.888681935873325E-3 0
8.542244097752923E-5 0
1.6069085784381724E-3 0
-3.0108586156438566E-3 0
-1.2236836366482432E-3 0
4.822945491418835E-1 0
-1.6063749535184942E-3 0
-3.5857718736887418E-3 0
1.183114121244993E-3 0
3.929445949563494E-5 0
-3.5021445536198965E-3 0
-2.5394630617034007E-3 0
-7.066502464392902E-4 0
-6.481826053835231E-4 0
-1.5892376177273973E-3 0
3.72759459291194E-3 0
-1.2605104860661826E-3 0
2.5387659948758147E-3 0
2.5987274171438437E-3 0
-1.3909575876387742E-3 0
3.911465133931042E-3 0
5.6690360969741975E-3 0
1.5247487197969046E-3 0
-1.9031992192434443E-3 0
9.528382524464994E-3 0
-8.37048050688293E-3 0
-1.1216278131749517E-3 0
2.1472065439421388E-3 0
1.0647501431042355E-2 0
-1.975421056323351E-3 0
9.7707076379223E-4 0
-1.3693038017409597E-3 0
1.1428446117523148E-2 0
2.5428099769382647E-3 0
-1.7437705456081066E-3 0
-9.60864623938071E-3 0
8.30039377986654E-3 0
-2.629932625814438E-3 0
9.960612228954186E-4 0
3.958518380174852E-3 0
-5.187189435032144E-3 0
-1.3553510518217852E-3 0
-5.426417302517946E-3 0
-5.495814544753018E-3 0
-1.3986870660432505E-3 0
-5.51552576485368E-3 0
4.74261792843399E-3 0
-1.9379018156136657E-3 0
-1.500794274453369E-3 0
-1.6497080705269477E-3 0
-3.4985492857320913E-3 0
-4.119122479991599E-3 0
-3.763760025177709E-5 0
1.427743907687623E-3 0
-3.289634380313704E-3 0
-1.606374953518507E-3 0
4.8133481995057104E-1 0
-2.6790839654123964E-3 0
-4.216918123791032E-3 0
1.3108440467623698E-3 0
8.934974382542291E-4 0
-2.7274260715261E-3 0
-2.5221196634154738E-3 0
-9.987973415210944E-4 0
-8.844108748670988E-4 0
-1.8231897379806165E-3 0
3.895123516482382E-3 0
-1.2855656366767476E-3 0
2.724078580417783E-3 0
2.514932045107064E-3 0
-1.3232155923361857E-3 0
-6.886491959834291E-3 0
4.431534761473878E-3 0
1.8426148320176978E-3 0
-1.6936708432900905E-3 0
9.704723664371669E-3 0
-8.48798656161136E-3 0
-1.3242242802257269E-3 0
2.177327349109908E-3 0
1.0616654901014547E-2 0
-1.7033795514654144E-3 0
1.8797499066061988E-3 0
-6.455299809470185E-4 0
1.2085738130211562E-2 0
2.0596593170152215E-3 0
-2.2189510976095644E-3 0
-9.67218106593261E-3 0
8.630772506400122E-3 0
-2.5429904636503006E-3 0
9.125018637730776E-4 0
4.187938489439481E-3 0
-5.213606497341801E-3 0
-1.5143078072376065E-3 0
-5.719088264617736E-3 0
-5.560622573181234E-3 0
-1.7152620487074686E-3 0
-1.821818239736164E-3 0
3.3345287225038664E-3 0
-2.165402760291354E-3 0
-1.515262176148713E-3 0
-1.7910225655285294E-3 0
-3.549127017122032E-3 0
-4.04762914655636E-3 0
-1.7409170270648948E-4 0
1.2118535332482198E-3 0
-3.5857718736887084E-3 0
-2.679083965412454E-3 0
4.8056858892012755E-1 0
-2.915683149969224E-3 0
-4.390915660093477E-3 0
1.7988264383016616E-3 0
9.007044270735524E-4 0
-3.524352753292219E-3 0
-2.916633653412766E-3 0
-1.4355636101245778E-3 0
-1.143793389864855E-3 0
-1.982183674357184E-3 0
3.962222670455738E-3 0
-1.6134476310083717E-3 0
2.9566134004254036E-3 0
2.360964748275542E-3 0
-2.1094386698007066E-3 0
-4.897485994838997E-3 0
4.251083604268237E-3 0
1.5821921599700351E-3 0
-1.9329531183363594E-3 0
9.160049786752018E-3 0
-8.74608961030856E-3 0
-1.194778901373274E-3 0
2.0499642949721687E-3 0
1.0936526037445E-2 0
-1.3291287479529985E-3 0
1.6651951716574606E-3 0
-1.1786199092230969E-3 0
1.1491830691717709E-2 0
2.133876938222345E-3 0
-1.529600701454703E-3 0
-9.12879442771919E-3 0
8.791301037042265E-3 0
-2.6283880418204566E-3 0
1.312847272965422E-3 0
4.446101036693993E-3 0
-5.276970684567921E-3 0
-1.0823087221637443E-3 0
-5.744613155572843E-3 0
-5.65277622060505E-3 0
3.559780660123283E-3 0
-1.4658646615192275E-3 0
3.502293553412885E-3 0
-2.141358377346021E-3 0
-1.5682719329640164E-3 0
-1.756038841199384E-3 0
-3.633309113980817E-3 0
-4.3705289873125965E-3 0
-2.3834917579024863E-4 0
1.1831141212449885E-3 0
-4.2169181237910365E-3 0
-2.915683149969227E-3 0
4.782915265971993E-1 0
-3.5148027845664565E-3 0
-4.389403331462914E-3 0
1.3039770564755085E-3 0
5.688623387506736E-5 0
-4.152916310912064E-3 0
-3.4819577702509753E-3 0
-1.87223049378718E-3 0
-1.292388275146379E-3 0
-2.3710411485866317E-3 0
4.102816248465596E-3 0
-1.8713114293694147E-3 0
2.887409019372795E-3 0
-7.997192755546E-3 0
-1.6919525282326983E-3 0
-5.535986560217682E-3 0
4.32789272304312E-3 0
1.4441336480044249E-3 0
-2.3131570385734653E-3 0
9.655741405603031E-3 0
-9.209744661257315E-3 0
-1.5130457589388607E-3 0
2.3121322838942767E-3 0
1.1472457277827839E-2 0
-1.665793344849194E-3 0
1.7073843948132265E-3 0
-1.4818814718164715E-3 0
1.1982846188941451E-2 0
2.655494622750377E-3 0
-1.471576402833589E-3 0
-9.555607921930536E-3 0
9.443033169604579E-3 0
-2.4544244813634224E-3 0
1.7172323658069455E-3 0
4.81113197964479E-3 0
-5.5217588382357454E-3 0
-9.747279495804276E-4 0
-6.324055638105853E-3 0
3.5597806601231807E-3 0
2.5007191764297096E-3 0
-1.3404164231749446E-3 0
3.609470378228364E-3 0
-2.0414856269928765E-3 0
-1.495376910823722E-3 0
-1.755222722449317E-3 0
-3.5481010251716774E-3 0
-4.117142201590042E-3 0
3.929445949563367E-5 0
1.310844046762365E-3 0
-4.390915660093477E-3 0
-3.5148027845664544E-3 0
4.7829152659719937E-1 0
-2.916416092871321E-3 0
-4.213590069499268E-3 0
1.1745159122156512E-3 0
-2.2052342629376779E-4 0
-4.404681337363701E-3 0
-3.5697415784819906E-3 0
-1.8754832598558476E-3 0
-1.3550675456794313E-3 0
-2.515768045643003E-3 0
3.963499977520615E-3 0
-1.7789490199001795E-3 0
-7.997192755546036E-3 0
-5.773485505867438E-3 0
-1.4598636530441698E-3 0
-5.1264152627116585E-3 0
4.638546842492203E-3 0
1.728719599464218E-3 0
-2.384659880913505E-3 0
9.356538439988654E-3 0
-9.486115250595669E-3 0
-1.5130928525641466E-3 0
2.6729401693989362E-3 0
1.1979004127343816E-2 0
-1.4818814718164657E-3 0
1.7073843948131851E-3 0
-1.6721997907907429E-3 0
1.1501546856087997E-2 0
2.241123091880102E-3 0
-1.3851615257887346E-3 0
-9.397832934336032E-3 0
9.886243557157491E-3 0
-2.528651349992538E-3 0
1.5425382658774728E-3 0
4.494847023953201E-3 0
-5.922266340789685E-3 0
-1.557431663434203E-3 0
-1.822128804460269E-3 0
2.399243192211928E-3 0
2.5655187961675097E-3 0
-1.184335247707618E-3 0
3.62328668075771E-3 0
-1.7496153182187633E-3 0
-1.2898394143757523E-3 0
-1.3489880220059613E-3 0
-2.9639448644062094E-3 0
-3.502144553619898E-3 0
8.934974382542158E-4 0
1.7988264383016499E-3 0
-4.38940333146291E-3 0
-2.9164160928713185E-3 0
4.805683633195669E-1 0
-2.677244708538507E-3 0
-3.589760342764214E-3 0
1.21764440038436E-3 0
-1.7896112623371423E-4 0
-4.049976902755601E-3 0
-3.5262996290520805E-3 0
-1.8547520671584694E-3 0
-1.357186812287975E-3 0
-2.4004662903361605E-3 0
3.6433661487341265E-3 0
-2.119684540799666E-3 0
-5.50503378348035E-3 0
-5.3889703441839E-3 0
-1.4577349161694582E-3 0
-5.012457237153241E-3 0
4.305343510798183E-3 0
1.3633219536487663E-3 0
-2.631683757171736E-3 0
8.778497987947732E-3 0
-9.116729289184597E-3 0
-1.5353487416952531E-3 0
2.133899770935618E-3 0
1.1495692519960467E-2 0
-1.18504612180975E-3 0
1.6809034917839203E-3 0
-1.3733535004778338E-3 0
1.1033290433253315E-2 0
1.8763507214696227E-3 0
-9.231619084733666E-4 0
-9.127654462488054E-3 0
9.634902786079058E-3 0
-2.4275413759065256E-3 0
1.8949237107265806E-3 0
4.24992307128707E-3 0
-5.235046585192674E-3 0
4.744028101395783E-3 0
-1.258119920768383E-3 0
2.5870619266758336E-3 0
2.532257237968515E-3 0
-1.0534939101657852E-3 0
3.7001341934179916E-3 0
-1.6830627664269084E-3 0
-9.724411203950077E-4 0
-9.521857945603028E-4 0
-2.539463061703386E-3 0
-2.727426071526104E-3 0
9.007044270735466E-4 0
1.3039770564755111E-3 0
-4.213590069499269E-3 0
-2.677244708538513E-3 0
4.8132276838919513E-1 0
-1.5784400584473264E-3 0
-3.337533589577907E-3 0
1.4947034114602372E-3 0
-1.1714035426431528E-4 0
-4.036884360746893E-3 0
-3.574880999196013E-3 0
-1.5901379310292126E-3 0
-1.532365831001186E-3 0
-2.0343000336329083E-3 0
-6.839968806593258E-3 0
-1.6604259900274434E-3 0
-5.595851817865544E-3 0
-5.56006014062093E-3 0
-1.7162785381271246E-3 0
-5.05078678004762E-3 0
4.082383160743723E-3 0
9.678558291954713E-4 0
-2.5642603253759337E-3 0
8.634483741362775E-3 0
-9.672197361992926E-3 0
-2.2133031443530293E-3 0
2.0421240164882537E-3 0
1.2114917462350128E-2 0
-6.896474686711868E-4 0
1.957013504197272E-3 0
-1.8375654408535813E-3 0
1.0837547152067598E-2 0
1.8332684825234991E-3 0
-8.136509552288773E-4 0
-9.206957244374871E-3 0
1.0630810459783415E-2 0
-2.6975581865910847E-3 0
2.6217809714302797E-3 0
4.351538511510031E-3 0
-2.4450477970062072E-3 0
3.591185048164217E-3 0
-1.1820248115763192E-3 0
2.5273115734932355E-3 0
2.472376325915105E-3 0
-1.1518046828033828E-3 0
3.6264088323331584E-3 0
-1.5212091867551354E-3 0
-6.786729029138953E-4 0
-7.066502464392763E-4 0
-2.5221196634154677E-3 0
-3.5243527532922204E-3 0
5.688623387506947E-5 0
1.174515912215656E-3 0
-3.5897603427642202E-3 0
-1.5784400584473303E-3 0
4.822296604651696E-1 0
-1.1115738373194935E-3 0
-3.169529302429891E-3 0
1.7975572940140507E-3 0
-1.1175548206718874E-4 0
-3.7104345559537226E-3 0
-3.401698115431216E-3 0
-1.3370432990330655E-3 0
-1.3337214582939177E-3 0
5.552776395839065E-3 0
-5.057876383912058E-3 0
-1.6241674349710149E-3 0
-5.4187972219654065E-3 0
-5.357439274645493E-3 0
-1.4725815275930545E-3 0
-5.0807331945782516E-3 0
3.8912479312955355E-3 0
1.022331638798288E-3 0
-2.629967022287857E-3 0
8.296737955128525E-3 0
-9.620457078510402E-3 0
-1.702031853364295E-3 0
2.471578542410836E-3 0
1.15249499541744E-2 0
-1.5035166778640755E-3 0
1.165474823206209E-3 0
-2.2458996321638486E-3 0
1.1040996401854783E-2 0
1.5729403973992224E-3 0
-2.8615648972838136E-4 0
-9.53330144685382E-3 0
1.1004613095334539E-2 0
-3.3069183316707758E-3 0
2.2827824648280945E-3 0
-1.4069448965856283E-3 0
-1.667229111495482E-3 0
3.6673203717769915E-3 0
-1.223184577168255E-3 0
2.484731320232608E-3 0
2.374795390322685E-3 0
-1.1683666394854905E-3 0
3.7023837711069848E-3 0
-1.44384406038342E-3 0
-6.481826053835098E-4 0
-9.987973415210866E-4 0
-2.9166336534127636E-3 0
-4.152916310912062E-3 0
-2.2052342629377003E-4 0
1.217644400384358E-3 0
-3.337533589577889E-3 0
-1.1115738373195477E-3 0
4.825260984943572E-1 0
-6.071274982735261E-4 0
-3.1327701352709767E-3 0
2.1564935608586475E-3 0
-8.101933677966015E-5 0
-3.4315078884466807E-3 0
-3.2239925502654623E-3 0
-1.23865361850876E-3 0
2.0016823434279257E-3 0
3.863849003074095E-3 0
-5.009456753305886E-3 0
-1.471180874325627E-3 0
-5.23791948738955E-3 0
-5.125839443197915E-3 0
-1.3896359473554167E-3 0
-5.041173929221604E-3 0
3.953324652953161E-3 0
8.980831200606443E-4 0
-2.8818721776658514E-3 0
8.438764288330384E-3 0
-9.66829212154223E-3 0
-1.2724773261770298E-3 0
2.2288830889639756E-3 0
1.1176448759760843E-2 0
-2.1479697165730192E-3 0
1.1754981756324815E-3 0
-2.4644280586296327E-3 0
1.1191940726846313E-2 0
1.2349736858494745E-3 0
-1.930117916053929E-5 0
-1.0213414697292334E-2 0
1.1013046559713857E-2 0
-3.2755721596648977E-3 0
-1.4650599682658973E-3 0
-9.12530956030923E-4 0
-1.6535750684753118E-3 0
3.6811829332511524E-3 0
-1.3098541890415054E-3 0
2.4559138671891574E-3 0
2.333186804152451E-3 0
-1.1618964773058794E-3 0
3.7329917903076125E-3 0
-1.5892376177273852E-3 0
-8.844108748670939E-4 0
-1.4355636101245773E-3 0
-3.4819577702509753E-3 0
-4.404681337363707E-3 0
-1.7896112623371307E-4 0
1.4947034114602467E-3 0
-3.1695293024299083E-3 0
-6.071274982735477E-4 0
4.825940032929014E-1 0
-9.077384072860173E-5 0
-3.2371818246612538E-3 0
2.559453260761037E-3 0
-4.714856757661097E-5 0
-3.2843809556849708E-3 0
-3.09514761017647E-3 0
-3.6591532628897578E-3 0
1.4109388947986547E-3 0
3.862504660413126E-3 0
-4.880412376394964E-3 0
-1.2439899480289453E-3 0
-5.13415381512334E-3 0
-4.985856583351084E-3 0
-1.3143370447181836E-3 0
-5.062480276102565E-3 0
3.957313535800257E-3 0
8.90236798121851E-4 0
-2.6054247584113037E-3 0
9.480348620321936E-3 0
-9.435148385053388E-3 0
-9.46125432894064E-4 0
1.8555346425294325E-3 0
1.104219863484476E-2 0
-2.4806899775704438E-3 0
1.2632439758304588E-3 0
-2.7913795598866766E-3 0
1.130665204550192E-2 0
8.141323754687055E-4 0
1.4752144285150375E-5 0
-1.0434939872231498E-2 0
1.0434507711571181E-2 0
-3.7695219865988964E-3 0
-1.044083411403458E-3 0
-8.366370460727374E-4 0
-1.6920612785066146E-3 0
3.6882098718714197E-3 0
-1.3847593233520647E-3 0
2.4771695274682028E-3 0
2.3295109525375496E-3 0
-1.2084473221822588E-3 0
3.7275945929119477E-3 0
-1.8231897379806133E-3 0
-1.143793389864856E-3 0
-1.8722304937871842E-3 0
-3.5697415784819906E-3 0
-4.0499769027556E-3 0
-1.171403542643144E-4 0
1.7975572940140444E-3 0
-3.1327701352709975E-3 0
-9.077384072860457E-5 0
4.8243211967523614E-1 0
4.8378869981508205E-4 0
-3.5247443451232414E-3 0
3.0227807699884745E-3 0
-5.726006633545089E-5 0
-3.3429708413563295E-3 0
1.2724656320218755E-2 0
-2.81682449694811E-3 0
1.508288761301386E-3 0
3.9060304969539684E-3 0
-4.856057103606902E-3 0
-1.0614923450083255E-3 0
-5.133672768256967E-3 0
-4.951668662915118E-3 0
-1.2645164289865807E-3 0
-5.076133568041112E-3 0
4.346367415258883E-3 0
1.4189611528009887E-3 0
-2.441886701603222E-3 0
9.873705777397294E-3 0
-9.233766181796804E-3 0
-9.72089691294775E-4 0
1.4619083961205934E-3 0
1.111934597955074E-2 0
-2.8204370227084244E-3 0
1.3878431525866243E-3 0
-3.255793140774943E-3 0
1.1441991797259325E-2 0
4.7254595706478766E-4 0
-4.159771527176762E-4 0
-1.0252973940478376E-2 0
-4.4607105739149855E-3 0
-2.6582475531275384E-3 0
-1.065251711874433E-3 0
-7.984709502089006E-4 0
-1.738448584077812E-3 0
3.7382520408865846E-3 0
-1.4508962703482584E-3 0
2.524058835820201E-3 0
2.3737334060196435E-3 0
-1.260510486066179E-3 0
3.895123516482381E-3 0
-1.982183674357188E-3 0
-1.2923882751463803E-3 0
-1.8754832598558478E-3 0
-3.526299629052083E-3 0
-4.036884360746897E-3 0
-1.1175548206719068E-4 0
2.1564935608586397E-3 0
-3.2371818246612408E-3 0
4.837886998150714E-4 0
4.8202768541139146E-1 0
1.192863468094732E-3 0
-3.9948746827732666E-3 0
3.4937781469043644E-3 0
1.3405583505930356E-4 0
-1.3217436601803615E-2 0
9.406666308871955E-3 0
-2.9739312861822363E-3 0
1.6308761731260752E-3 0
4.00385071603889E-3 0
-4.9756524893288055E-3 0
-9.291076217913053E-4 0
-5.200846516282877E-3 0
-5.0302652321561085E-3 0
-1.2145968826801723E-3 0
-5.112236481864596E-3 0
4.36058154869149E-3 0
1.6018350283955192E-3 0
-2.4132540125811146E-3 0
9.720422971014617E-3 0
-9.308330424397378E-3 0
-4.2690284429423256E-4 0
1.1388307286958135E-3 0
1.1265207506385237E-2 0
-3.2658789796764253E-3 0
1.709112015102568E-3 0
-3.90354812386402E-3 0
1.1798791224799722E-2 0
1.543034803497125E-4 0
-7.653746450127126E-4 0
8.977374208335734E-4 0
-3.270370067495639E-3 0
-2.5531419171437174E-3 0
-1.0859561631341586E-3 0
-7.85012311471023E-4 0
-1.8118055049800483E-3 0
3.8561063806776237E-3 0
-1.5014998970826247E-3 0
2.5951414543219577E-3 0
2.5387659948758142E-3 0
-1.2855656366767487E-3 0
3.9622226704557366E-3 0
-2.371041148586632E-3 0
-1.355067545679433E-3 0
-1.8547520671584666E-3 0
-3.5748809991960153E-3 0
-3.7104345559537256E-3 0
-8.101933677965904E-5 0
2.5594532607610457E-3 0
-3.5247443451232405E-3 0
1.1928634680947153E-3 0
4.814203193257649E-1 0
2.00699902380634E-3 0
-4.218649222951202E-3 0
3.2732331127441902E-3 0
-1.3126406387980903E-3 0
-9.803354675907894E-3 0
9.641664967950115E-3 0
-3.19983949754686E-3 0
1.5928776058433854E-3 0
4.225460535249507E-3 0
-5.219152908666133E-3 0
-8.769078883154467E-4 0
-5.308263327979241E-3 0
-5.310824230325647E-3 0
-1.429691072067004E-3 0
-5.364186191031191E-3 0
4.694505260852421E-3 0
1.6591649846698423E-3 0
-2.340324381537907E-3 0
1.0546186968520731E-2 0
-9.648878028435812E-3 0
-1.0114386145291497E-4 0
7.828815111958245E-4 0
1.1438962902101996E-2 0
-3.8984702052259784E-3 0
2.250587324119521E-3 0
-4.621167367213057E-3 0
1.2290700162332939E-2 0
1.3640875856827528E-4 0
3.434384714336101E-3 0
7.207798433278704E-4 0
-3.367101697679994E-3 0
-2.4984276912835917E-3 0
-1.0534351887597434E-3 0
-7.303965077869001E-4 0
-1.9275826157476345E-3 0
4.016152859249096E-3 0
-1.5275974861011124E-3 0
2.598727417143847E-3 0
2.724078580417783E-3 0
-1.6134476310083726E-3 0
4.102816248465598E-3 0
-2.5157680456430066E-3 0
-1.3571868122879709E-3 0
-1.5901379310292176E-3 0
-3.4016981154312113E-3 0
-3.4315078884466885E-3 0
-4.714856757660043E-5 0
3.022780769988469E-3 0
-3.994874682773283E-3 0
2.0069990238063364E-3 0
4.8061538392516767E-1 0
2.627899359124275E-3 0
-3.7392004746672185E-3 0
6.91914945994671E-4 0
-8.862394270827157E-4 0
-1.0067035821400321E-2 0
1.0053474073653671E-2 0
-3.2959065632529273E-3 0
1.317374829901093E-3 0
4.4863784687746945E-3 0
-5.524510458293204E-3 0
-9.84936140387681E-4 0
-5.42731768304463E-3 0
-5.659608491520361E-3 0
-1.1293924441570275E-3 0
-5.597099575481452E-3 0
4.570187761198898E-3 0
1.9420092341501589E-3 0
-2.757046139394875E-3 0
1.0936136130686206E-2 0
-1.0261118053306999E-2 0
4.27751537699601E-6 0
4.8207131840267053E-4 0
1.1812655727251264E-2 0
-4.613317424313867E-3 0
2.6232240528974073E-3 0
-4.718813382678272E-3 0
1.2348885482008827E-2 0
-3.3314922034810663E-3 0
2.4752556770915313E-3 0
9.110530933181486E-4 0
-3.418816602212044E-3 0
-2.6280749498989644E-3 0
-1.0676096253352785E-3 0
-6.388799527050822E-4 0
-2.012521610697358E-3 0
4.087828832983273E-3 0
-1.3909575876387699E-3 0
2.5149320451070705E-3 0
2.956613400425397E-3 0
-1.8713114293694125E-3 0
3.963499977520615E-3 0
-2.4004662903361613E-3 0
-1.5323658310011869E-3 0
-1.3370432990330629E-3 0
-3.223992550265468E-3 0
-3.2843809556849656E-3 0
-5.726006633545991E-5 0
3.493778146904369E-3 0
-4.218649222951231E-3 0
2.627899359124294E-3 0
4.8029671675988833E-1 0
1.613004151739721E-3 0
1.5374381104041152E-2 0
7.778723726642643E-4 0
-9.318098604308503E-4 0
-1.0449603045183796E-2 0
9.996557037277488E-3 0
-2.8163613705807283E-3 0
8.864064937120304E-4 0
4.660904462402543E-3 0
-5.636603615470013E-3 0
-1.3773144138240997E-3 0
-5.620853495270975E-3 0
-5.959588837490067E-3 0
-1.1298537758698953E-3 0
-5.767140514500213E-3 0
4.464898176073633E-3 0
2.6820145140818525E-3 0
-3.3282972652563998E-3 0
1.099731763536388E-2 0
-1.0429105052216654E-2 0
-3.9851413574762585E-4 0
1.7251169284799157E-4 0
1.2303054104845453E-2 0
-4.7136497099548764E-3 0
2.133351506887599E-3 0
-4.218926142106062E-3 0
-3.24456247140929E-5 0
-2.3569266893084394E-3 0
2.4074424378545227E-3 0
9.100651230138945E-4 0
-3.431389151992389E-3 0
-2.818349783722957E-3 0
-1.169982198694846E-3 0
-8.042319409132366E-4 0
-1.970600259946557E-3 0
3.911465133931045E-3 0
-1.3232155923361807E-3 0
2.3609647482755436E-3 0
2.8874090193727955E-3 0
-1.778949019900178E-3 0
3.6433661487341265E-3 0
-2.034300033632909E-3 0
-1.3337214582939242E-3 0
-1.238653618508752E-3 0
-3.0951476101764774E-3 0
-3.342970841356322E-3 0
1.340558350593065E-4 0
3.2732331127441855E-3 0
-3.739200474667236E-3 0
1.6130041517397194E-3 0
4.8081758473735725E-1 0
-4.413025863078565E-3 0
1.0916722591089945E-2 0
1.2960693571099108E-3 0
-1.1976916331089137E-3 0
-1.0183927591761946E-2 0
9.54656269967307E-3 0
-2.4879209740239524E-3 0
9.32390990137991E-4 0
4.504424853013163E-3 0
-5.514176179763791E-3 0
-1.7110751919147693E-3 0
-5.656067177398695E-3 0
-6.33331415346799E-3 0
-1.5481731480720626E-3 0
-5.231754807240042E-3 0
4.347347926102652E-3 0
2.281441928025289E-3 0
-3.2765759124551595E-3 0
1.0443038154608227E-2 0
-1.023950065378448E-2 0
-7.523080623976222E-4 0
1.45538764542985E-4 0
1.2353589787720961E-2 0
-4.217595427701366E-3 0
1.3384473121075533E-3 0
6.368976715123353E-4 0
-3.4819489237150566E-3 0
1.3826221306170368E-2 0
2.150624604509505E-3 0
-2.4016343375548163E-3 0
-1.2407391012969955E-2 0
1.2160830538478046E-2 0
-3.28885040937103E-3 0
1.7790060955831285E-3 0
5.669036096974199E-3 0
-6.8864919598342934E-3 0
-2.109438669800706E-3 0
-7.997192755546E-3 0
-7.997192755546036E-3 0
-2.1196845407996687E-3 0
-6.839968806593256E-3 0
5.552776395839066E-3 0
2.0016823434279227E-3 0
-3.6591532628897573E-3 0
1.2724656320218752E-2 0
-1.3217436601803618E-2 0
-1.3126406387980831E-3 0
6.919149459946737E-4 0
1.5374381104041136E-2 0
-4.413025863078566E-3 0
6.845735452301448E-1 0
-2.422741010461571E-2 0
2.0850711146708115E-2 0
-2.0969679291979182E-2 0
-7.475233186039004E-3 0
2.4310278608055097E-2 0
1.6572792309268256E-2 0
3.5949590191565075E-3 0
4.534099552329834E-3 0
1.7925443474135144E-2 0
-3.2804987913402715E-2 0
1.8922475505586744E-2 0
-1.9783506560124505E-2 0
-1.9783506560124283E-2 0
1.8924370827426915E-2 0
-3.2813593950744374E-2 0
1.79436764310622E-2 0
4.514958625415347E-3 0
3.576730443013064E-3 0
1.6721911810029008E-2 0
2.3811379814361468E-2 0
-6.274633561716672E-3 0
-2.3534132531966886E-2 0
2.4308551749878202E-2 0
-2.734924351558855E-2 0
-3.4819489237140375E-3 0
2.7326103210142017E-4 0
-2.543748834038574E-3 0
1.007534418454362E-2 0
1.5918822591468554E-3 0
-1.6931574887225124E-3 0
-8.981009663629407E-3 0
8.994129362792395E-3 0
-2.2069803037659164E-3 0
1.5247487197969038E-3 0
4.431534761473878E-3 0
-4.897485994838994E-3 0
-1.6919525282327011E-3 0
-5.7734855058674366E-3 0
-5.505033783480348E-3 0
-1.6604259900274427E-3 0
-5.0578763839120595E-3 0
3.863849003074092E-3 0
1.4109388947986569E-3 0
-2.816824496948115E-3 0
9.406666308871955E-3 0
-9.803354675907894E-3 0
-8.862394270827241E-4 0
7.778723726642621E-4 0
1.091672259108994E-2 0
-2.42274101046157E-2 0
5.978792389888619E-1 0
-1.75526701292628E-2 0
1.5305958175252666E-2 0
-1.511870511972349E-2 0
-5.124387887630113E-3 0
1.8103204220180927E-2 0
1.2632752897073165E-2 0
3.4005340077384915E-3 0
4.172493390749482E-3 0
1.3606972328778132E-2 0
-2.3627789686590336E-2 0
1.4704451255291765E-2 0
-1.3712864089015946E-2 0
-1.3066204196578866E-2 0
1.3559245778326111E-2 0
-2.4563419580271875E-2 0
1.2597796608578363E-2 0
2.7299138622936016E-3 0
2.6795055549011645E-3 0
1.1640880717194477E-2 0
1.7723218420352512E-2 0
-5.178276734389745E-3 0
-1.6360213888660543E-2 0
1.6528755137412816E-2 0
1.382622130616895E-2 0
-2.542424281270318E-3 0
2.975119110009968E-4 0
-2.516617773537575E-3 0
1.010841817298093E-2 0
1.6414306780527074E-3 0
-1.606007573957609E-3 0
-8.830362534532336E-3 0
9.243245015658609E-3 0
-1.9031992192434415E-3 0
1.8426148320176928E-3 0
4.251083604268248E-3 0
-5.5359865602176836E-3 0
-1.4598636530441674E-3 0
-5.388970344183899E-3 0
-5.595851817865543E-3 0
-1.6241674349710172E-3 0
-5.009456753305885E-3 0
3.8625046604131266E-3 0
1.5082887613013885E-3 0
-2.9739312861822415E-3 0
9.641664967950114E-3 0
-1.0067035821400326E-2 0
-9.318098604308539E-4 0
1.29606935710991E-3 0
2.0850711146708122E-2 0
-1.755267012926275E-2 0
5.980246142337129E-1 0
-1.7363375784218066E-2 0
1.5546205205054429E-2 0
-1.480520154074777E-2 0
-4.698432098209789E-3 0
1.868325060043212E-2 0
1.3415129745853065E-2 0
4.3327842228037955E-3 0
5.484370306155937E-3 0
1.4561224347072955E-2 0
-2.4880692315912882E-2 0
1.4424363751105139E-2 0
-1.3917350912539778E-2 0
-1.4306387679251787E-2 0
1.309822047865017E-2 0
-2.4956224654967624E-2 0
1.2689961168749353E-2 0
2.3098953895696927E-3 0
2.9649478305246377E-3 0
1.0984521807624388E-2 0
1.8436955294037542E-2 0
-6.405926976207975E-3 0
-1.5890946154701293E-2 0
2.150624604510807E-3 0
1.0079846839906946E-2 0
-2.5116202797703744E-3 0
3.3019056757926826E-4 0
-2.4766100437630034E-3 0
1.0169088940009527E-2 0
1.7452697770768573E-3 0
-1.4376407462685288E-3 0
-8.570641139891677E-3 0
9.528382524465E-3 0
-1.693670843290101E-3 0
1.5821921599700438E-3 0
4.327892723043121E-3 0
-5.126415262711656E-3 0
-1.457734916169458E-3 0
-5.56006014062093E-3 0
-5.41879722196541E-3 0
-1.4711808743256285E-3 0
-4.880412376394958E-3 0
3.9060304969539606E-3 0
1.630876173126073E-3 0
-3.199839497546855E-3 0
1.0053474073653665E-2 0
-1.0449603045183805E-2 0
-1.1976916331089221E-3 0
-2.096967929197917E-2 0
1.5305958175252621E-2 0
-1.7363375784218045E-2 0
5.982535773710176E-1 0
-1.708788844321374E-2 0
1.5889846377268896E-2 0
-1.4356565240714218E-2 0
-4.109223265959125E-3 0
1.946195723304201E-2 0
1.4307993261639163E-2 0
5.0601775954804175E-3 0
5.1191369325113536E-3 0
1.4677039481594635E-2 0
-2.492017597163094E-2 0
1.3322416096082838E-2 0
-1.3811270625804175E-2 0
-1.3996242661484026E-2 0
1.342150210993739E-2 0
-2.5052650354883407E-2 0
1.303327340767806E-2 0
2.023708942571646E-3 0
3.206694284106241E-3 0
1.0588147335616914E-2 0
1.880387993331469E-2 0
-6.481927495557705E-3 0
-2.4016343375557626E-3 0
1.6006833655193345E-3 0
1.0120558542780881E-2 0
-2.468526370922415E-3 0
3.8164001703339676E-4 0
-2.403104569171125E-3 0
1.0284304152824757E-2 0
1.9139485538321478E-3 0
-1.2090999418345036E-3 0
-8.370480506882933E-3 0
9.70472366437168E-3 0
-1.932953118336368E-3 0
1.4441336480044218E-3 0
4.638546842492203E-3 0
-5.012457237153234E-3 0
-1.7162785381271278E-3 0
-5.357439274645492E-3 0
-5.237919487389547E-3 0
-1.2439899480289462E-3 0
-4.856057103606906E-3 0
4.003850716038893E-3 0
1.5928776058433864E-3 0
-3.29590656325292E-3 0
9.996557037277488E-3 0
-1.018392759176195E-2 0
-7.475233186039025E-3 0
-1.5118705119723413E-2 0
1.5546205205054398E-2 0
-1.7087888443213746E-2 0
5.985655320137772E-1 0
-1.672336411871424E-2 0
1.6336764788176243E-2 0
-1.3803548012652954E-2 0
-3.399680905727511E-3 0
2.026654344337162E-2 0
1.52315770428593E-2 0
5.440916509017866E-3 0
5.3104204377380235E-3 0
1.4583320021950003E-2 0
-2.4417004301353608E-2 0
1.2557680777108348E-2 0
-1.3548861128715598E-2 0
-1.3812721254949081E-2 0
1.3991011305010351E-2 0
-2.5181913371650624E-2 0
1.3404759249578867E-2 0
1.8428151858182896E-3 0
3.1123854219994133E-3 0
1.1292475720214743E-2 0
1.8683480547712843E-2 0
-1.2407391012969398E-2 0
-1.6806495881717695E-3 0
1.6593872967694198E-3 0
1.0183044073196259E-2 0
-2.3981738727593253E-3 0
4.7170814340277787E-4 0
-2.278824491083955E-3 0
1.0445517627059161E-2 0
2.090481903104514E-3 0
-1.1216278131749538E-3 0
-8.487986561611358E-3 0
9.160049786752007E-3 0
-2.3131570385734653E-3 0
1.7287195994642173E-3 0
4.3053435107981855E-3 0
-5.050786780047619E-3 0
-1.4725815275930566E-3 0
-5.125839443197917E-3 0
-5.134153815123337E-3 0
-1.0614923450083195E-3 0
-4.975652489328796E-3 0
4.225460535249516E-3 0
1.3173748299010986E-3 0
-2.8163613705807296E-3 0
9.546562699673078E-3 0
2.4310278608055114E-2 0
-5.124387887630157E-3 0
-1.4805201540747758E-2 0
1.5889846377268885E-2 0
-1.6723364118714248E-2 0
5.989653559045043E-1 0
-1.625691115478906E-2 0
1.6884114881508573E-2 0
-1.3155283086976489E-2 0
-2.741393850769354E-3 0
2.124221982857193E-2 0
1.5490186391960509E-2 0
5.340487166388216E-3 0
5.19966724286848E-3 0
1.2822304343441714E-2 0
-2.498022600736708E-2 0
1.2973405084187676E-2 0
-1.2961367744129397E-2 0
-1.3720788653201187E-2 0
1.4486794368131474E-2 0
-2.5594557120734107E-2 0
1.3965158132167149E-2 0
1.4166858667573094E-3 0
3.145483306349689E-3 0
1.2309603286153027E-2 0
1.2160830538477841E-2 0
-8.968038816630833E-3 0
-1.5888674928752954E-3 0
1.7550740823623961E-3 0
1.028121311480281E-2 0
-2.2887788878242442E-3 0
6.025774137074529E-4 0
-2.1291207342873093E-3 0
1.0583581672526803E-2 0
2.1472065439421435E-3 0
-1.3242242802257314E-3 0
-8.746089610308563E-3 0
9.655741405603031E-3 0
-2.3846598809135005E-3 0
1.3633219536487696E-3 0
4.0823831607437275E-3 0
-5.0807331945782585E-3 0
-1.3896359473554245E-3 0
-4.985856583351077E-3 0
-5.133672768256957E-3 0
-9.291076217912971E-4 0
-5.219152908666131E-3 0
4.486378468774697E-3 0
8.864064937120337E-4 0
-2.487920974023955E-3 0
1.6572792309268253E-2 0
1.8103204220180937E-2 0
-4.698432098209797E-3 0
-1.4356565240714207E-2 0
1.6336764788176243E-2 0
-1.625691115478907E-2 0
5.995052608672499E-1 0
-1.5614174575665024E-2 0
1.7584335024314477E-2 0
-1.2583778492884773E-2 0
-2.456005332316203E-3 0
2.0791435801066332E-2 0
1.5891950383881238E-2 0
5.320985092852785E-3 0
4.454142380069217E-3 0
1.285011590955315E-2 0
-2.4388768238749896E-2 0
1.3081320838358074E-2 0
-1.2717136390600904E-2 0
-1.3913016662269463E-2 0
1.4979703043978868E-2 0
-2.6444181289989682E-2 0
1.4847136162133132E-2 0
7.431378557361114E-4 0
3.3871499405864775E-3 0
-3.288850409370968E-3 0
9.002328393150428E-3 0
-8.82474443075002E-3 0
-1.4480396169913885E-3 0
1.882621398389004E-3 0
1.0404055978855313E-2 0
-2.1582369009975405E-3 0
7.35472209980304E-4 0
-2.0184844457171985E-3 0
1.0647501431042362E-2 0
2.177327349109905E-3 0
-1.194778901373269E-3 0
-9.209744661257315E-3 0
9.356538439988654E-3 0
-2.631683757171737E-3 0
9.678558291954788E-4 0
3.891247931295536E-3 0
-5.041173929221607E-3 0
-1.3143370447181732E-3 0
-4.951668662915117E-3 0
-5.200846516282876E-3 0
-8.769078883154493E-4 0
-5.524510458293208E-3 0
4.660904462402545E-3 0
9.323909901379888E-4 0
3.5949590191565075E-3 0
1.2632752897073166E-2 0
1.8683250600432126E-2 0
-4.109223265959121E-3 0
-1.3803548012652957E-2 0
1.6884114881508577E-2 0
-1.561417457566501E-2 0
6.00338668732381E-1 0
-1.4639025452562479E-2 0
1.84711150485181E-2 0
-1.2140452848042316E-2 0
-2.0964725241167225E-3 0
2.2299436847874155E-2 0
1.556556627636738E-2 0
4.221553887363576E-3 0
3.5011880275162607E-3 0
1.2091370887681413E-2 0
-2.4856429171138478E-2 0
1.3031422571996819E-2 0
-1.2693029392122173E-2 0
-1.4225526381247761E-2 0
1.5425965656552422E-2 0
-2.76047343223023E-2 0
1.5470308551190574E-2 0
1.6460577016508058E-3 0
1.7790060955831203E-3 0
-2.207841481634071E-3 0
9.227388981442458E-3 0
-8.618303820887943E-3 0
-1.2908118019810517E-3 0
1.994211964042058E-3 0
1.051117386916347E-2 0
-2.0348717058531404E-3 0
8.358012732988802E-4 0
-1.975421056323366E-3 0
1.061665490101456E-2 0
2.049964294972171E-3 0
-1.5130457589388622E-3 0
-9.486115250595667E-3 0
8.77849798794774E-3 0
-2.5642603253759307E-3 0
1.0223316387982888E-3 0
3.953324652953164E-3 0
-5.062480276102568E-3 0
-1.2645164289865874E-3 0
-5.030265232156109E-3 0
-5.3082633279792416E-3 0
-9.84936140387678E-4 0
-5.636603615470012E-3 0
4.504424853013161E-3 0
4.534099552329828E-3 0
3.400534007738499E-3 0
1.3415129745853065E-2 0
1.946195723304201E-2 0
-3.399680905727519E-3 0
-1.3155283086976487E-2 0
1.758433502431448E-2 0
-1.4639025452562493E-2 0
6.016977332262397E-1 0
-1.307111539222145E-2 0
1.982927906529739E-2 0
-1.1003471139022846E-2 0
-1.7781146857344127E-3 0
2.1394908481633706E-2 0
1.3036533604288825E-2 0
2.0136505182293527E-3 0
1.5928542298596215E-3 0
1.1610669973521847E-2 0
-2.5092980249853066E-2 0
1.3394614699366874E-2 0
-1.2973802289242007E-2 0
-1.4611967006411666E-2 0
1.5661281452438516E-2 0
-2.8054762344235845E-2 0
1.4845127847084309E-2 0
5.669036096974217E-3 0
1.5236455590105346E-3 0
-1.9249020852742345E-3 0
9.46007082926628E-3 0
-8.486082918674266E-3 0
-1.2624519954483162E-3 0
2.0362455223554457E-3 0
1.0648621487211634E-2 0
-1.8773824641189997E-3 0
9.770707637922215E-4 0
-1.7033795514654235E-3 0
1.0936526037444997E-2 0
2.312132283894273E-3 0
-1.513092852564146E-3 0
-9.116729289184593E-3 0
8.63448374136277E-3 0
-2.6299670222878564E-3 0
8.980831200606443E-4 0
3.957313535800254E-3 0
-5.076133568041111E-3 0
-1.214596882680168E-3 0
-5.310824230325642E-3 0
-5.427317683044627E-3 0
-1.3773144138241051E-3 0
-5.51417617976379E-3 0
1.792544347413515E-2 0
4.172493390749472E-3 0
4.332784222803784E-3 0
1.4307993261639144E-2 0
2.0266543443371615E-2 0
-2.741393850769356E-3 0
-1.2583778492884792E-2 0
1.8471115048518092E-2 0
-1.3071115392221442E-2 0
6.038744937148446E-1 0
-1.1294932352283554E-2 0
2.0769579319074017E-2 0
-1.143468577615028E-2 0
-2.771296943238392E-3 0
1.8467737375654263E-2 0
1.0646604925565658E-2 0
6.18310280194517E-4 0
1.3581540789533763E-3 0
1.261378182999548E-2 0
-2.5164050124316686E-2 0
1.3807038481518236E-2 0
-1.4061894748980537E-2 0
-1.4537230251070732E-2 0
1.4696040836234088E-2 0
-2.6855939642001243E-2 0
-6.886491959834267E-3 0
4.430491602706331E-3 0
1.8969952765300608E-3 0
-1.7488850911525718E-3 0
9.618147480225454E-3 0
-8.58850482491739E-3 0
-1.4829940530782175E-3 0
2.19974977712183E-3 0
1.0955455415205572E-2 0
-1.369303801740961E-3 0
1.8797499066061957E-3 0
-1.3291287479530024E-3 0
1.1472457277827837E-2 0
2.672940169398935E-3 0
-1.5353487416952455E-3 0
-9.672197361992915E-3 0
8.296737955128527E-3 0
-2.8818721776658535E-3 0
8.902367981218572E-4 0
4.346367415258885E-3 0
-5.112236481864601E-3 0
-1.429691072067005E-3 0
-5.659608491520354E-3 0
-5.620853495270978E-3 0
-1.7110751919147665E-3 0
-3.280498791340271E-2 0
1.3606972328778121E-2 0
5.4843703061559475E-3 0
5.0601775954804236E-3 0
1.5231577042859294E-2 0
2.1242219828571926E-2 0
-2.456005332316193E-3 0
-1.2140452848042311E-2 0
1.9829279065297373E-2 0
-1.1294932352283547E-2 0
6.080545705387904E-1 0
-7.205631763277287E-3 0
2.3199792302874712E-2 0
-1.1236795552310169E-2 0
-6.491162811567767E-3 0
1.4418213931524374E-2 0
1.0511277048602441E-2 0
2.37543935791542E-3 0
2.8207246502677174E-3 0
1.3929289890146636E-2 0
-2.64788471671367E-2 0
1.4341187328141847E-2 0
-1.530202801540808E-2 0
-1.371157971230205E-2 0
1.4243686657951182E-2 0
-2.1094386698008397E-3 0
-4.8876397542221076E-3 0
4.452510464140865E-3 0
1.639461046226151E-3 0
-1.8508626145633488E-3 0
9.248212703762873E-3 0
-8.853592095944714E-3 0
-1.2169240052362583E-3 0
2.4020159504221012E-3 0
1.1428446117523146E-2 0
-6.455299809470221E-4 0
1.6651951716574482E-3 0
-1.6657933448491957E-3 0
1.1979004127343817E-2 0
2.133899770935631E-3 0
-2.2133031443530207E-3 0
-9.620457078510407E-3 0
8.438764288330394E-3 0
-2.605424758411307E-3 0
1.4189611528009855E-3 0
4.360581548691496E-3 0
-5.364186191031186E-3 0
-1.1293924441570377E-3 0
-5.959588837490062E-3 0
-5.656067177398695E-3 0
1.8922475505586726E-2 0
-2.3627789686590323E-2 0
1.4561224347072958E-2 0
5.119136932511354E-3 0
5.440916509017872E-3 0
1.5490186391960512E-2 0
2.079143580106631E-2 0
-2.096472524116728E-3 0
-1.100347113902283E-2 0
2.0769579319074014E-2 0
-7.205631763277313E-3 0
6.103736290403494E-1 0
-7.682378636470321E-3 0
2.5044147299882167E-2 0
-1.3310348518891615E-2 0
-6.547698481368549E-3 0
1.864156977535532E-2 0
1.2667742222751573E-2 0
4.8926576649506864E-3 0
3.3296592602336424E-3 0
1.4599728318914535E-2 0
-2.698895072891597E-2 0
1.6552086967173044E-2 0
-1.683772772713148E-2 0
-1.2524115622454122E-2 0
-7.997192755545753E-3 0
-1.678991844853851E-3 0
-5.38931974050734E-3 0
4.409706100801272E-3 0
1.5573380402539988E-3 0
-2.1958523966406607E-3 0
9.642107558949245E-3 0
-9.246376407956865E-3 0
-1.4007773481332993E-3 0
2.5428099769382643E-3 0
1.2085738130211562E-2 0
-1.1786199092230962E-3 0
1.7073843948132578E-3 0
-1.4818814718164357E-3 0
1.1495692519960472E-2 0
2.042124016488257E-3 0
-1.7020318533642917E-3 0
-9.668292121542231E-3 0
9.480348620321937E-3 0
-2.4418867016032216E-3 0
1.6018350283955143E-3 0
4.694505260852415E-3 0
-5.59709957548145E-3 0
-1.1298537758698973E-3 0
-6.333314153467989E-3 0
-1.9783506560124505E-2 0
1.4704451255291755E-2 0
-2.488069231591288E-2 0
1.4677039481594632E-2 0
5.310420437738026E-3 0
5.340487166388217E-3 0
1.5891950383881234E-2 0
2.229943684787415E-2 0
-1.778114685734412E-3 0
-1.1434685776150283E-2 0
2.3199792302874705E-2 0
-7.682378636470325E-3 0
6.235724886707047E-1 0
-5.4017515891994E-3 0
2.5032129088813963E-2 0
-1.1182224781776098E-2 0
-2.910969774308007E-3 0
2.167835077259502E-2 0
1.5043539582038013E-2 0
6.2391966382824866E-3 0
3.618798068618444E-3 0
1.7129963028004874E-2 0
-2.8706276954727647E-2 0
1.8482341172657218E-2 0
-1.6373242009903033E-2 0
-7.997192755546325E-3 0
-5.786446189246182E-3 0
-1.6065304727546517E-3 0
-5.208228640469677E-3 0
4.525342450242539E-3 0
1.6114149575314556E-3 0
-2.3710260342597366E-3 0
9.393170186688213E-3 0
-9.598383661401226E-3 0
-1.7437705456081042E-3 0
2.059659317015225E-3 0
1.1491830691717716E-2 0
-1.4818814718164219E-3 0
1.707384394813208E-3 0
-1.1850461218097545E-3 0
1.211491746235013E-2 0
2.471578542410837E-3 0
-1.2724773261770322E-3 0
-9.435148385053393E-3 0
9.873705777397294E-3 0
-2.4132540125811164E-3 0
1.6591649846698488E-3 0
4.5701877611989015E-3 0
-5.767140514500212E-3 0
-1.5481731480720602E-3 0
-1.9783506560124283E-2 0
-1.371286408901593E-2 0
1.4424363751105135E-2 0
-2.4920175971630945E-2 0
1.458332002195001E-2 0
5.199667242868486E-3 0
5.320985092852784E-3 0
1.556556627636737E-2 0
2.139490848163371E-2 0
-2.771296943238391E-3 0
-1.1236795552310167E-2 0
2.504414729988217E-2 0
-5.401751589199395E-3 0
6.235724886707045E-1 0
-7.676596221085093E-3 0
2.3173536243521937E-2 0
-1.1366678886428476E-2 0
-1.9199125889163347E-3 0
2.257281922941971E-2 0
1.538157314233346E-2 0
6.2952742337649475E-3 0
3.6221787848463157E-3 0
1.759742342259454E-2 0
-2.8440049316855284E-2 0
1.729569652158618E-2 0
-2.119684540799473E-3 0
-5.514880742011229E-3 0
-5.590396748940918E-3 0
-1.5150055159782615E-3 0
-5.09454926652267E-3 0
4.21717991040137E-3 0
1.470822275333018E-3 0
-2.6095384116284035E-3 0
8.426450713635377E-3 0
-9.608646239380713E-3 0
-2.2189510976095505E-3 0
2.1338769382223508E-3 0
1.198284618894145E-2 0
-1.6721997907907437E-3 0
1.6809034917839253E-3 0
-6.89647468671188E-4 0
1.1524949954174402E-2 0
2.228883088963974E-3 0
-9.46125432894067E-4 0
-9.233766181796811E-3 0
9.720422971014612E-3 0
-2.3403243815379128E-3 0
1.942009234150161E-3 0
4.4648981760736246E-3 0
-5.231754807240047E-3 0
1.8924370827426894E-2 0
-1.3066204196578864E-2 0
-1.391735091253977E-2 0
1.3322416096082838E-2 0
-2.44170043013536E-2 0
1.282230434344171E-2 0
4.454142380069227E-3 0
4.221553887363582E-3 0
1.3036533604288816E-2 0
1.8467737375654263E-2 0
-6.491162811567772E-3 0
-1.3310348518891617E-2 0
2.503212908881396E-2 0
-7.676596221085087E-3 0
6.103761271077212E-1 0
-7.222345375268802E-3 0
2.080548829295479E-2 0
-1.1055352005167713E-2 0
-2.0525524229164393E-3 0
2.0810191202683754E-2 0
1.529810175153884E-2 0
5.969697319828771E-3 0
3.8596120159881462E-3 0
1.6387677410662153E-2 0
-2.5893437106003905E-2 0
-6.8399688065932775E-3 0
-1.6593795714473214E-3 0
-5.650234328908788E-3 0
-5.5048381120758215E-3 0
-1.629695426745726E-3 0
-4.950265413709349E-3 0
4.24116275939499E-3 0
9.454323037920235E-4 0
-2.9030807328814814E-3 0
8.300393779866536E-3 0
-9.672181065932609E-3 0
-1.5296007014546946E-3 0
2.6554946227503756E-3 0
1.1501546856087995E-2 0
-1.3733535004778364E-3 0
1.9570135041972313E-3 0
-1.5035166778640929E-3 0
1.1176448759760847E-2 0
1.8555346425294375E-3 0
-9.720896912947775E-4 0
-9.30833042439738E-3 0
1.0546186968520728E-2 0
-2.757046139394883E-3 0
2.68201451408186E-3 0
4.347347926102653E-3 0
-3.281359395074437E-2 0
1.3559245778326111E-2 0
-1.430638767925179E-2 0
-1.3811270625804171E-2 0
1.2557680777108336E-2 0
-2.4980226007367084E-2 0
1.2850115909553156E-2 0
3.5011880275162663E-3 0
2.0136505182293627E-3 0
1.0646604925565649E-2 0
1.4418213931524367E-2 0
-6.5476984813685616E-3 0
-1.1182224781776096E-2 0
2.3173536243521937E-2 0
-7.222345375268787E-3 0
6.081548482039306E-1 0
-1.152457567571208E-2 0
2.021964582317003E-2 0
-1.2681791126572242E-2 0
-1.8217497470514978E-3 0
2.0606454234886648E-2 0
1.577844717372833E-2 0
4.723717585800744E-3 0
5.551019479921499E-3 0
1.436935459499584E-2 0
5.55277639583893E-3 0
-5.056781135822867E-3 0
-1.6024596279138469E-3 0
-5.350504458589338E-3 0
-5.241853767244258E-3 0
-1.3317650114468087E-3 0
-4.969796075947436E-3 0
3.890130493533906E-3 0
9.24341233188317E-4 0
-2.6299326258144413E-3 0
8.630772506400132E-3 0
-9.128794427719196E-3 0
-1.4715764028335894E-3 0
2.2411230918800967E-3 0
1.1033290433253325E-2 0
-1.8375654408535839E-3 0
1.1654748232061707E-3 0
-2.147969716573011E-3 0
1.1042198634844751E-2 0
1.461908396120591E-3 0
-4.269028442942372E-4 0
-9.648878028435814E-3 0
1.0936136130686221E-2 0
-3.3282972652564084E-3 0
2.2814419280252915E-3 0
1.7943676431062212E-2 0
-2.4563419580271872E-2 0
1.3098220478650153E-2 0
-1.3996242661484021E-2 0
-1.3548861128715593E-2 0
1.2973405084187666E-2 0
-2.438876823874992E-2 0
1.2091370887681401E-2 0
1.5928542298596022E-3 0
6.183102801945252E-4 0
1.0511277048602437E-2 0
1.864156977535532E-2 0
-2.9109697743080103E-3 0
-1.136667888642847E-2 0
2.0805488292954803E-2 0
-1.1524575675712105E-2 0
6.044017338634723E-1 0
-1.397570608382066E-2 0
1.9748303205968973E-2 0
-1.4119435089700136E-2 0
-1.1486156222172998E-3 0
1.882928173232827E-2 0
1.5488055785534185E-2 0
3.4883504784288177E-3 0
4.746331582948286E-3 0
2.001682343428167E-3 0
3.864724210828779E-3 0
-4.9936091068805335E-3 0
-1.4234844002304074E-3 0
-5.156177209662549E-3 0
-5.029555246368311E-3 0
-1.3171855022749528E-3 0
-5.024791086682975E-3 0
3.953239717272956E-3 0
9.96061222895421E-4 0
-2.5429904636503037E-3 0
8.791301037042275E-3 0
-9.555607921930538E-3 0
-1.3851615257887359E-3 0
1.876350721469624E-3 0
1.0837547152067604E-2 0
-2.245899632163863E-3 0
1.17549817563249E-3 0
-2.4806899775704125E-3 0
1.1119345979550752E-2 0
1.1388307286958215E-3 0
-1.0114386145292385E-4 0
-1.0261118053307011E-2 0
1.0997317635363903E-2 0
-3.276575912455159E-3 0
4.514958625415337E-3 0
1.259779660857836E-2 0
-2.4956224654967617E-2 0
1.3421502109937393E-2 0
-1.3812721254949091E-2 0
-1.2961367744129407E-2 0
1.3081320838358067E-2 0
-2.48564291711385E-2 0
1.1610669973521842E-2 0
1.3581540789533888E-3 0
2.375439357915427E-3 0
1.266774222275157E-2 0
2.1678350772595025E-2 0
-1.9199125889163382E-3 0
-1.105535200516772E-2 0
2.021964582317002E-2 0
-1.39757060838207E-2 0
6.032732161256967E-1 0
-1.691810558719149E-2 0
2.041566632695909E-2 0
-1.6188695909952016E-2 0
-6.348332040384515E-4 0
1.7312061431563316E-2 0
1.479190748540459E-2 0
3.049820334692466E-3 0
-3.659153262889986E-3 0
1.4027195677699432E-3 0
3.856897598278452E-3 0
-4.87006308094888E-3 0
-1.212708169426654E-3 0
-5.092714864349029E-3 0
-4.956803057533494E-3 0
-1.3143315710917227E-3 0
-5.07874660191775E-3 0
3.9585183801748485E-3 0
9.125018637730823E-4 0
-2.628388041820453E-3 0
9.44303316960458E-3 0
-9.397832934336036E-3 0
-9.231619084733684E-4 0
1.8332684825234926E-3 0
1.1040996401854799E-2 0
-2.4644280586296565E-3 0
1.263243975830464E-3 0
-2.8204370227084287E-3 0
1.1265207506385242E-2 0
7.828815111958404E-4 0
4.277515377019304E-6 0
-1.0429105052216676E-2 0
1.0443038154608229E-2 0
3.5767304430130626E-3 0
2.7299138622936033E-3 0
1.2689961168749361E-2 0
-2.5052650354883396E-2 0
1.3991011305010362E-2 0
-1.3720788653201197E-2 0
-1.2717136390600903E-2 0
1.3031422571996824E-2 0
-2.5092980249853052E-2 0
1.2613781829995495E-2 0
2.820724650267725E-3 0
4.8926576649506795E-3 0
1.5043539582038022E-2 0
2.2572819229419706E-2 0
-2.052552422916442E-3 0
-1.2681791126572224E-2 0
1.9748303205968928E-2 0
-1.6918105587191423E-2 0
6.037627177311965E-1 0
-2.0092466594441735E-2 0
2.199560974980944E-2 0
-1.881420062931326E-2 0
-1.727715620440542E-4 0
1.6529465853272876E-2 0
1.4009484452509043E-2 0
1.272465632021893E-2 0
-2.8297701211626577E-3 0
1.491137333401752E-3 0
3.896289394456549E-3 0
-4.852906436412201E-3 0
-1.0515047910834912E-3 0
-5.133592154317503E-3 0
-4.980788694696756E-3 0
-1.337068598082367E-3 0
-5.187189435032148E-3 0
4.187938489439492E-3 0
1.3128472729654176E-3 0
-2.4544244813634163E-3 0
9.886243557157488E-3 0
-9.127654462488059E-3 0
-8.136509552288819E-4 0
1.5729403973992406E-3 0
1.1191940726846308E-2 0
-2.791379559886695E-3 0
1.3878431525866574E-3 0
-3.2658789796764505E-3 0
1.1438962902101979E-2 0
4.8207131840265064E-4 0
-3.9851413574760444E-4 0
-1.0239500653784492E-2 0
1.6721911810029E-2 0
2.679505554901167E-3 0
2.3098953895696805E-3 0
1.3033273407678054E-2 0
-2.518191337165063E-2 0
1.4486794368131484E-2 0
-1.3913016662269457E-2 0
-1.2693029392122183E-2 0
1.3394614699366892E-2 0
-2.5164050124316675E-2 0
1.3929289890146627E-2 0
3.329659260233638E-3 0
6.239196638282483E-3 0
1.5381573142333462E-2 0
2.0810191202683757E-2 0
-1.8217497470514842E-3 0
-1.411943508970016E-2 0
2.0415666326959108E-2 0
-2.0092466594441725E-2 0
6.057649154593673E-1 0
-2.4002922465743547E-2 0
2.4747002066009455E-2 0
-2.200217731629758E-2 0
4.2794252142456016E-4 0
1.7103246711646106E-2 0
-1.3217436601803682E-2 0
9.394130560854834E-3 0
-2.991880173635197E-3 0
1.616847550305694E-3 0
3.99884643571134E-3 0
-4.975701243537615E-3 0
-9.391599735217356E-4 0
-5.242314101743354E-3 0
-5.126393672624053E-3 0
-1.3553510518217818E-3 0
-5.2136064973418005E-3 0
4.446101036694002E-3 0
1.7172323658069452E-3 0
-2.5286513499925365E-3 0
9.634902786079053E-3 0
-9.206957244374874E-3 0
-2.861564897283796E-4 0
1.2349736858494739E-3 0
1.130665204550192E-2 0
-3.2557931407749307E-3 0
1.7091120151025213E-3 0
-3.898470205226E-3 0
1.181265572725126E-2 0
1.7251169284799203E-4 0
-7.523080623976333E-4 0
2.3811379814361464E-2 0
1.1640880717194468E-2 0
2.964947830524632E-3 0
2.023708942571643E-3 0
1.3404759249578886E-2 0
-2.5594557120734107E-2 0
1.4979703043978871E-2 0
-1.4225526381247768E-2 0
-1.297380228924201E-2 0
1.3807038481518243E-2 0
-2.6478847167136707E-2 0
1.4599728318914524E-2 0
3.6187980686184403E-3 0
6.295274233764947E-3 0
1.5298101751538838E-2 0
2.060645423488667E-2 0
-1.1486156222173187E-3 0
-1.6188695909952016E-2 0
2.1995609749809467E-2 0
-2.4002922465743624E-2 0
6.093959650520083E-1 0
-2.9120337265400774E-2 0
2.8738049581547166E-2 0
-2.503192606638995E-2 0
-8.773954774574597E-4 0
-1.3126406387980265E-3 0
-9.812127804334825E-3 0
9.62952529636546E-3 0
-3.2078418525394335E-3 0
1.592967502108666E-3 0
4.2304657467740715E-3 0
-5.22212331430533E-3 0
-9.082031154966798E-4 0
-5.390076318196522E-3 0
-5.426417302517945E-3 0
-1.5143078072376082E-3 0
-5.276970684567909E-3 0
4.811131979644791E-3 0
1.5425382658774715E-3 0
-2.427541375906529E-3 0
1.0630810459783415E-2 0
-9.533301446853824E-3 0
-1.9301179160526987E-5 0
8.14132375468697E-4 0
1.1441991797259339E-2 0
-3.903548123864021E-3 0
2.2505873241195204E-3 0
-4.613317424313846E-3 0
1.230305410484543E-2 0
1.455387645430073E-4 0
-6.274633561716681E-3 0
1.772321842035252E-2 0
1.0984521807624376E-2 0
3.206694284106257E-3 0
1.8428151858182781E-3 0
1.3965158132167158E-2 0
-2.6444181289989686E-2 0
1.542596565655242E-2 0
-1.4611967006411663E-2 0
-1.4061894748980529E-2 0
1.4341187328141847E-2 0
-2.698895072891598E-2 0
1.7129963028004857E-2 0
3.6221787848463205E-3 0
5.969697319828774E-3 0
1.5778447173728342E-2 0
1.8829281732328274E-2 0
-6.348332040384578E-4 0
-1.8814200629313237E-2 0
2.4747002066009414E-2 0
-2.9120337265400826E-2 0
6.145668589168641E-1 0
-3.5157295053520866E-2 0
3.0995226555078668E-2 0
-2.3210657341379684E-2 0
6.919149459945695E-4 0
-8.907727965833105E-4 0
-1.0072059036775775E-2 0
1.0053361112701106E-2 0
-3.2879734793818827E-3 0
1.3311631465683575E-3 0
4.495969852609351E-3 0
-5.535037057261833E-3 0
-1.0326040083950775E-3 0
-5.4958145447530195E-3 0
-5.719088264617735E-3 0
-1.0823087221637458E-3 0
-5.521758838235743E-3 0
4.494847023953197E-3 0
1.8949237107265793E-3 0
-2.6975581865910873E-3 0
1.1004613095334544E-2 0
-1.0213414697292339E-2 0
1.475214428515777E-5 0
4.725459570647997E-4 0
1.1798791224799723E-2 0
-4.621167367213086E-3 0
2.6232240528973757E-3 0
-4.713649709954837E-3 0
1.235358978772096E-2 0
-2.3534132531966873E-2 0
-5.178276734389737E-3 0
1.8436955294037567E-2 0
1.0588147335616907E-2 0
3.1123854219994225E-3 0
1.416685866757316E-3 0
1.4847136162133125E-2 0
-2.760473432230231E-2 0
1.5661281452438502E-2 0
-1.4537230251070728E-2 0
-1.530202801540807E-2 0
1.655208696717304E-2 0
-2.870627695472764E-2 0
1.759742342259454E-2 0
3.859612015988154E-3 0
4.72371758580074E-3 0
1.5488055785534225E-2 0
1.731206143156329E-2 0
-1.7277156204400292E-4 0
-2.2002177316297618E-2 0
2.8738049581547142E-2 0
-3.515729505352083E-2 0
6.210809945891799E-1 0
-3.944578656972267E-2 0
2.7573673153348775E-2 0
1.5374381104041188E-2 0
7.765797684601689E-4 0
-9.317573472132886E-4 0
-1.0444463445927272E-2 0
1.0008908442994112E-2 0
-2.7981414343930433E-3 0
9.038541883855426E-4 0
4.666753659870272E-3 0
-5.652343281882015E-3 0
-1.3986870660432562E-3 0
-5.560622573181237E-3 0
-5.744613155572843E-3 0
-9.747279495804233E-4 0
-5.92226634078969E-3 0
4.249923071287067E-3 0
2.621780971430277E-3 0
-3.306918331670769E-3 0
1.1013046559713857E-2 0
-1.0434939872231496E-2 0
-4.1597715271767693E-4 0
1.543034803497225E-4 0
1.2290700162332906E-2 0
-4.71881338267827E-3 0
2.1333515068875895E-3 0
-4.2175954277013485E-3 0
2.430855174987822E-2 0
-1.6360213888660543E-2 0
-6.405926976207963E-3 0
1.8803879933314702E-2 0
1.1292475720214742E-2 0
3.145483306349681E-3 0
7.431378557361097E-4 0
1.5470308551190574E-2 0
-2.805476234423585E-2 0
1.4696040836234086E-2 0
-1.3711579712302045E-2 0
-1.6837727727131473E-2 0
1.8482341172657214E-2 0
-2.8440049316855277E-2 0
1.6387677410662146E-2 0
5.5510194799215104E-3 0
3.4883504784288086E-3 0
1.4791907485404612E-2 0
1.652946585327287E-2 0
4.2794252142457344E-4 0
-2.5031926066389962E-2 0
3.0995226555078675E-2 0
-3.9445786569722606E-2 0
6.226818592409631E-1 0
-3.237684617846235E-2 0
-4.41302586307851E-3 0
1.0916706832293038E-2 0
1.297434085499345E-3 0
-1.1930208154571835E-3 0
-1.0174766283733585E-2 0
9.559597784911084E-3 0
-2.474418993081435E-3 0
9.408982762633962E-4 0
4.503437131913332E-3 0
-5.51552576485368E-3 0
-1.7152620487074686E-3 0
-5.652776220605049E-3 0
-6.324055638105855E-3 0
-1.557431663434207E-3 0
-5.235046585192671E-3 0
4.351538511510042E-3 0
2.282782464828085E-3 0
-3.275572159664889E-3 0
1.0434507711571183E-2 0
-1.0252973940478392E-2 0
-7.653746450127048E-4 0
1.3640875856829244E-4 0
1.2348885482008817E-2 0
-4.218926142106069E-3 0
1.3384473121076169E-3 0
-2.7349243515588536E-2 0
1.6528755137412823E-2 0
-1.5890946154701265E-2 0
-6.481927495557695E-3 0
1.8683480547712832E-2 0
1.2309603286153029E-2 0
3.387149940586464E-3 0
1.6460577016508074E-3 0
1.4845127847084312E-2 0
-2.6855939642001246E-2 0
1.4243686657951185E-2 0
-1.2524115622454129E-2 0
-1.6373242009903043E-2 0
1.729569652158617E-2 0
-2.5893437106003902E-2 0
1.4369354594995842E-2 0
4.746331582948288E-3 0
3.0498203346924777E-3 0
1.4009484452509028E-2 0
1.7103246711646123E-2 0
-8.773954774574756E-4 0
-2.3210657341379705E-2 0
2.7573673153348785E-2 0
-3.237684617846232E-2 0
6.167224083724379E-1 0
