%%MatrixMarket matrix array complex general
%
50 50
4.672946292488971E-1 0
1.8112690285844578E-3 0
-1.365874864579581E-3 0
-6.459520314742149E-4 0
-5.787631056648182E-4 0
-2.3167650944434876E-4 0
-1.535108880009758E-3 0
-2.7000642479148244E-3 0
1.5189359455868052E-3 0
-3.28424118674965E-4 0
5.511116183477337E-3 0
5.241412185669578E-3 0
-1.7861929133416406E-3 0
-1.7861929133414385E-3 0
5.2406748472013185E-3 0
5.514464196598563E-3 0
-3.3636480959352733E-4 0
1.5320917456949725E-3 0
-2.7161124409521738E-3 0
-1.5226685084274642E-3 0
-2.280188969871145E-4 0
-6.15192067064422E-4 0
-5.436813143097862E-4 0
-1.5177361065402727E-3 0
1.9916161102636327E-3 0
5.65180508045902E-3 0
-1.4827612239035516E-2 0
-5.970511901987863E-4 0
1.771066387127297E-3 0
-2.862576476817654E-3 0
5.397102696926554E-3 0
7.0503489377467645E-3 0
-1.2025570575734267E-2 0
9.283801141535158E-3 0
-7.240472881325944E-3 0
-4.044016876858319E-3 0
-1.1631302431218408E-2 0
8.307330332022385E-3 0
8.307330332022252E-3 0
-1.163783568982793E-2 0
-4.0143514836974694E-3 0
-7.31231374051038E-3 0
9.410350428910984E-3 0
-1.2205517031639565E-2 0
7.2646230849647345E-3 0
5.178101382290796E-3 0
-2.659700076420309E-3 0
1.4865045906648628E-3 0
-1.9229652136235151E-4 0
-1.5857608626757523E-2 0
1.8112690285844574E-3 0
4.826025182919689E-1 0
1.3023368727464212E-3 0
-1.0060050927973214E-3 0
-5.067843661258946E-4 0
-4.814441806000299E-4 0
-2.530858895428098E-4 0
-1.237205260761411E-3 0
-2.1237323372358917E-3 0
9.043548743334121E-4 0
-4.587202253450189E-4 0
3.936351276572735E-3 0
4.096411100586339E-3 0
-1.3631794714440977E-3 0
-1.2342404263698714E-3 0
3.994709276265556E-3 0
4.17500870243493E-3 0
-1.4485289861689655E-4 0
1.218654478038493E-3 0
-1.939500117783049E-3 0
-1.0394147655717883E-3 0
-1.5184582958387027E-4 0
-3.737066505486246E-4 0
-4.213641132180521E-4 0
-1.0138215898454247E-3 0
-1.4827612239036607E-2 0
3.073977178374728E-3 0
-1.082399565539657E-2 0
-4.892327074753921E-4 0
1.2444761844423676E-3 0
-2.097115008519948E-3 0
3.918446042728817E-3 0
5.131624075098826E-3 0
-8.712121524207781E-3 0
6.787957560366866E-3 0
-5.411709331710596E-3 0
-3.173851559470269E-3 0
-9.13855841199661E-3 0
5.922647503649881E-3 0
5.754214663063578E-3 0
-8.488457266195121E-3 0
-2.8928237976701076E-3 0
-5.429080796736902E-3 0
6.975317907737469E-3 0
-8.976880096056683E-3 0
5.399458808880756E-3 0
3.7539385117300477E-3 0
-2.0476735725965434E-3 0
1.3847707875811251E-3 0
-5.795092615774672E-4 0
-1.3658748645795791E-3 0
1.3023368727463867E-3 0
4.825638605303454E-1 0
1.252317710003787E-3 0
-1.0675735278037047E-3 0
-5.822754125972012E-4 0
-5.761311626344304E-4 0
-3.717678691441495E-4 0
-1.3792838538787468E-3 0
-2.2492854376704413E-3 0
9.342306591498487E-4 0
-1.851500304277828E-4 0
4.447846587196392E-3 0
4.210795737292389E-3 0
-1.271034658888167E-3 0
-1.2593173754241473E-3 0
3.935870008119453E-3 0
4.1710078583336585E-3 0
-1.5773646394428453E-4 0
1.2697151624721833E-3 0
-1.9355190943301972E-3 0
-9.84294870683151E-4 0
-1.4628299433320287E-4 0
-3.47052863008214E-4 0
-4.5969542279522974E-4 0
-5.970511901971911E-4 0
-1.0824913964450284E-2 0
3.059000806872681E-3 0
-1.0843507572755895E-2 0
-5.103004349639454E-4 0
1.2276446003060624E-3 0
-2.1030157589927443E-3 0
3.925077761631167E-3 0
5.126770962867925E-3 0
-8.784069583171053E-3 0
6.464383405430261E-3 0
-5.740620513613298E-3 0
-3.5681820650841317E-3 0
-9.385463152548693E-3 0
5.6614123660099136E-3 0
5.892155780783511E-3 0
-8.573091231407756E-3 0
-2.7271149632300358E-3 0
-5.537146969722821E-3 0
7.213864487945022E-3 0
-9.1870429950475E-3 0
5.664460581976063E-3 0
3.611361179881027E-3 0
-1.9938127101200203E-3 0
1.3682237948045221E-3 0
-6.459520314742145E-4 0
-1.0060050927973242E-3 0
1.2523177100037736E-3 0
4.82503328692179E-1 0
1.1808413634146109E-3 0
-1.1525708809505173E-3 0
-6.844326789876292E-4 0
-6.945909527922458E-4 0
-4.941925726009594E-4 0
-1.4634816612241665E-3 0
-2.242006996004478E-3 0
1.0351522744486883E-3 0
-9.607218701256952E-5 0
4.456369954843321E-3 0
4.002950883897632E-3 0
-1.2393917981783202E-3 0
-1.2660903577431104E-3 0
3.872216652348541E-3 0
4.16310857629733E-3 0
-1.8877001728176152E-4 0
1.3183319511028651E-3 0
-1.9629922376515046E-3 0
-9.446750571762912E-4 0
-1.4808399093138745E-4 0
-3.9185788269011253E-4 0
1.7710663871258628E-3 0
-4.922485647283904E-4 0
-1.0846758376650213E-2 0
3.032375879784432E-3 0
-1.0871025101726236E-2 0
-5.322765212176912E-4 0
1.2176925097586258E-3 0
-2.0998415951758395E-3 0
3.920811344859649E-3 0
5.08039472241965E-3 0
-8.877019458852407E-3 0
6.432053471816406E-3 0
-6.103601644804061E-3 0
-3.591363489294325E-3 0
-8.775742379400351E-3 0
5.603431502267944E-3 0
5.864640763992213E-3 0
-8.653053288019326E-3 0
-2.5181734474270323E-3 0
-5.703641977276108E-3 0
7.565475375228915E-3 0
-9.561080784798628E-3 0
6.055908227911017E-3 0
3.380326207489991E-3 0
-1.9976087422801177E-3 0
-5.787631056648198E-4 0
-5.067843661258879E-4 0
-1.067573527803682E-3 0
1.1808413634145922E-3 0
4.824215129769745E-1 0
1.0856381478773006E-3 0
-1.264899594868032E-3 0
-8.129388290289229E-4 0
-8.389809633614567E-4 0
-6.463703500454029E-4 0
-1.7181226557331816E-3 0
-2.4131550339391867E-3 0
1.0854416087496966E-3 0
-1.0064282802754395E-4 0
4.391511062135655E-3 0
4.1827256787246355E-3 0
-1.2355346035869542E-3 0
-1.2686418534765178E-3 0
3.8324743822749177E-3 0
4.183660648879278E-3 0
-2.351647916761825E-4 0
1.3891689125192105E-3 0
-2.0327370404254383E-3 0
-9.139606245656827E-4 0
-1.799873057550014E-4 0
-2.8625764768167015E-3 0
1.2388725271253015E-3 0
-5.176585195376776E-4 0
-1.0875373278777063E-2 0
3.004098879568069E-3 0
-1.0894053517337658E-2 0
-5.439963815589133E-4 0
1.223515400758158E-3 0
-2.0544293975008282E-3 0
4.0276028968393544E-3 0
5.300652634990454E-3 0
-8.81333016862112E-3 0
6.72507913606476E-3 0
-5.938275658704193E-3 0
-3.37058653802853E-3 0
-8.852451322494556E-3 0
5.513920273285242E-3 0
5.962517434073685E-3 0
-8.704768529149257E-3 0
-2.2668983240194777E-3 0
-5.957229262509948E-3 0
8.019415026486128E-3 0
-1.0118760741023653E-2 0
6.509817092912448E-3 0
3.576706490348449E-3 0
-2.3167650944434808E-4 0
-4.81444180600014E-4 0
-5.822754125971999E-4 0
-1.1525708809505231E-3 0
1.0856381478772956E-3 0
4.823105502480258E-1 0
9.513296035884752E-4 0
-1.4256024557832343E-3 0
-1.0065696704616755E-3 0
-1.056963547228647E-3 0
-9.195268487878055E-4 0
-1.7828040671890543E-3 0
-2.4231059159595452E-3 0
1.179728367437472E-3 0
1.1080229079746736E-4 0
4.435237454786284E-3 0
4.084773349871574E-3 0
-1.2510965060393024E-3 0
-1.2686156228853605E-3 0
3.8108561234095457E-3 0
4.219712501438628E-3 0
-2.9852423237583357E-4 0
1.4794811060989672E-3 0
-2.129008229515115E-3 0
-1.015288714406645E-3 0
5.3971026969260386E-3 0
-2.1044969378075525E-3 0
1.2180964338703614E-3 0
-5.376138157533608E-4 0
-1.0893453867401075E-2 0
2.9879080712593505E-3 0
-1.090691730294083E-2 0
-5.478054951716864E-4 0
1.2667216208437375E-3 0
-1.9512219965525928E-3 0
4.297522150458052E-3 0
5.27528156036438E-3 0
-9.481217136004893E-3 0
6.871738042241271E-3 0
-5.773002172288264E-3 0
-3.5117527451746324E-3 0
-8.599660292541438E-3 0
5.641679751393716E-3 0
6.158285188320846E-3 0
-8.741067803962489E-3 0
-2.0634473359778E-3 0
-6.2343771422130835E-3 0
8.434457116463614E-3 0
-1.0379862569518858E-2 0
6.233041771722471E-3 0
-1.5351088800097585E-3 0
-2.530858895428237E-4 0
-5.761311626344359E-4 0
-6.844326789876191E-4 0
-1.2648995948680306E-3 0
9.513296035885043E-4 0
4.8214017549479254E-1 0
7.387061931762303E-4 0
-1.6767891182691585E-3 0
-1.255837544194567E-3 0
-1.2309402741168072E-3 0
-8.555698933905065E-4 0
-1.665777881068783E-3 0
-2.265200453242093E-3 0
1.2572965764074812E-3 0
1.4059862336564106E-4 0
4.397811879923858E-3 0
4.0964567460786295E-3 0
-1.2429350010173894E-3 0
-1.2635559631290264E-3 0
3.8019604974813374E-3 0
4.244492798475071E-3 0
-3.495834169355429E-4 0
1.481344015634673E-3 0
-2.1372407155759287E-3 0
7.050348937746999E-3 0
3.910099433029554E-3 0
-2.1107312001524877E-3 0
1.2205046893865408E-3 0
-5.291025450981981E-4 0
-1.0889998081708145E-2 0
2.971043858301862E-3 0
-1.095414795430836E-2 0
-6.153072901607528E-4 0
1.1574122449987119E-3 0
-2.1718942220009755E-3 0
3.7821296866965264E-3 0
5.2248843975716795E-3 0
-9.307725926334429E-3 0
6.695901496162131E-3 0
-5.335902894709615E-3 0
-2.9485851756021475E-3 0
-8.281824523695443E-3 0
5.798333330165916E-3 0
6.218003867606547E-3 0
-8.808108230100005E-3 0
-2.0313716996053495E-3 0
-6.404438242647294E-3 0
8.203163109089313E-3 0
-9.86688887239184E-3 0
-2.7000642479148205E-3 0
-1.2372052607614017E-3 0
-3.7176786914414414E-4 0
-6.945909527922492E-4 0
-8.129388290289268E-4 0
-1.4256024557832325E-3 0
7.387061931762815E-4 0
4.8186632087247E-1 0
4.146738897235953E-4 0
-1.9859642551774046E-3 0
-1.4584894746909635E-3 0
-1.2489758986160059E-3 0
-7.90926447361469E-4 0
-1.499107173765602E-3 0
-1.8785685848181875E-3 0
1.537139924722989E-3 0
3.046786761928008E-4 0
4.484780646409361E-3 0
4.111554674586259E-3 0
-1.2279656733674889E-3 0
-1.2873795530872216E-3 0
3.8272297342701257E-3 0
4.24397240430179E-3 0
-2.998595715247911E-4 0
1.3515500406325097E-3 0
-1.202557057573438E-2 0
5.119524210960479E-3 0
3.92154458700713E-3 0
-2.0756960647702505E-3 0
1.273829698786397E-3 0
-4.917951830984721E-4 0
-1.0917959724197965E-2 0
2.843302384150809E-3 0
-1.1188345494335283E-2 0
-9.460198618858174E-4 0
7.831651281746321E-4 0
-2.4405056635474973E-3 0
4.00191152917781E-3 0
5.466024313117832E-3 0
-8.562053048417955E-3 0
7.030898680362593E-3 0
-4.976034111294067E-3 0
-2.647515480649822E-3 0
-8.221656896427674E-3 0
5.8003608266496125E-3 0
6.100304298740098E-3 0
-8.893657603148355E-3 0
-2.1242557160265564E-3 0
-6.107372452483234E-3 0
7.572305061660379E-3 0
1.518935945586811E-3 0
-2.123732337235893E-3 0
-1.379283853878747E-3 0
-4.941925726009528E-4 0
-8.389809633614532E-4 0
-1.0065696704616817E-3 0
-1.6767891182691767E-3 0
4.1467388972361207E-4 0
4.8145512040352645E-1 0
-3.171435682799413E-5 0
-2.3501060441009167E-3 0
-1.581314065059343E-3 0
-1.252860088001148E-3 0
-6.175165418410055E-4 0
-9.995554187022587E-4 0
-1.3571207167726509E-3 0
1.8791914269767065E-3 0
4.2370304344017154E-4 0
4.497733113488223E-3 0
4.067136973866332E-3 0
-1.2044113421588929E-3 0
-1.3278407427669255E-3 0
3.894747789928712E-3 0
4.22024448087387E-3 0
-1.8684505033516254E-4 0
9.283801141535179E-3 0
-8.75174285617275E-3 0
5.116498553989097E-3 0
3.985395337960466E-3 0
-1.9374616085586743E-3 0
1.384221437430001E-3 0
-5.36314144496603E-4 0
-1.1159984362169E-2 0
2.4157196380332857E-3 0
-1.1738139053842534E-2 0
-1.3965210799037023E-3 0
5.912886805101821E-4 0
-2.5932521934434135E-3 0
4.06195220267931E-3 0
5.367880238725167E-3 0
-8.233438938542826E-3 0
7.420059466903116E-3 0
-4.865989456885651E-3 0
-2.592429994896229E-3 0
-8.493121670709137E-3 0
5.633237544824872E-3 0
5.868129415277081E-3 0
-8.964033452989262E-3 0
-2.371633879445554E-3 0
-5.789296900599665E-3 0
-3.284241186749662E-4 0
9.043548743334116E-4 0
-2.2492854376704443E-3 0
-1.46348166122417E-3 0
-6.463703500454031E-4 0
-1.0569635472286415E-3 0
-1.2558375441945565E-3 0
-1.985964255177407E-3 0
-3.171435682798839E-5 0
4.8086923240490637E-1 0
-5.384266880049483E-4 0
-2.423494046142377E-3 0
-1.5278929343247815E-3 0
-1.1635797493785628E-3 0
-1.3318504343624564E-4 0
-3.278207692447845E-4 0
-1.018893804771901E-3 0
1.8897638366339624E-3 0
2.821084195616439E-4 0
4.434226023089435E-3 0
4.028332689877251E-3 0
-1.1447897061159884E-3 0
-1.4187890357600617E-3 0
4.122064851271375E-3 0
4.3016045191555064E-3 0
-7.240472881325886E-3 0
6.680825434390739E-3 0
-8.825839845637014E-3 0
5.188177640804187E-3 0
4.209772563484568E-3 0
-1.7911396760192317E-3 0
1.247813630798716E-3 0
-9.307214644786898E-4 0
-1.1775671884799173E-2 0
1.63384870349562E-3 0
-1.2673965618332008E-2 0
-1.9735949563694207E-3 0
5.268716198289168E-4 0
-2.587557448169247E-3 0
4.416009969299945E-3 0
6.2600615519320816E-3 0
-7.869591423518363E-3 0
7.548739643962016E-3 0
-5.179904967933128E-3 0
-2.768906084427422E-3 0
-9.052994472755323E-3 0
5.5298521594525606E-3 0
5.865749801731067E-3 0
-8.935255730313197E-3 0
-2.7182820664538097E-3 0
5.511116183477332E-3 0
-4.587202253450222E-4 0
9.342306591498454E-4 0
-2.242006996004478E-3 0
-1.7181226557331792E-3 0
-9.195268487878084E-4 0
-1.2309402741168057E-3 0
-1.4584894746909583E-3 0
-2.3501060441009033E-3 0
-5.384266880049559E-4 0
4.7997160803566985E-1 0
-1.011157844527056E-3 0
-2.5783922623428364E-3 0
-1.7359751101205586E-3 0
-2.3205531144731987E-4 0
9.289071728292121E-4 0
-3.2052147499099417E-4 0
-1.3742537576183313E-3 0
1.5639674425217854E-3 0
1.0746193212347367E-4 0
4.468555899469052E-3 0
4.15369992657706E-3 0
-1.1709017445699144E-3 0
-1.3927473338700104E-3 0
4.295069305531218E-3 0
-4.044016876858425E-3 0
-5.6960333821381905E-3 0
6.376391738003528E-3 0
-8.7097778371145E-3 0
5.477596727051921E-3 0
4.4345321147240485E-3 0
-2.135179783649432E-3 0
7.150540048678328E-4 0
-1.5445525860966305E-3 0
-1.2892276547453991E-2 0
6.099819505736098E-4 0
-1.2754374177791277E-2 0
-1.9367079157997008E-3 0
2.8249267227092693E-4 0
-2.0294306201482227E-3 0
5.08684346339113E-3 0
6.545589435213957E-3 0
-8.24904061154863E-3 0
7.380869894288643E-3 0
-5.785226685185674E-3 0
-3.1143633045115325E-3 0
-9.62741803727592E-3 0
5.864870151327788E-3 0
5.919851129947361E-3 0
-8.702635329938141E-3 0
5.2414121856695795E-3 0
3.936351276572735E-3 0
-1.8515003042779166E-4 0
1.0351522744486842E-3 0
-2.413155033939186E-3 0
-1.7828040671890469E-3 0
-8.555698933905059E-4 0
-1.2489758986160106E-3 0
-1.5813140650593443E-3 0
-2.4234940461423495E-3 0
-1.0111578445270563E-3 0
4.8009743418166717E-1 0
-8.734802511590778E-4 0
-3.200721860399159E-3 0
-1.194646973293884E-3 0
-2.2737827166467728E-4 0
-1.4631400098840636E-4 0
-9.74516750639193E-4 0
-1.9170530307055134E-3 0
1.306674957139154E-3 0
6.370946596432878E-5 0
4.408112758991561E-3 0
4.064708488487341E-3 0
-1.3996042035296671E-3 0
-1.2270524727918059E-3 0
-1.1631302431218219E-2 0
-3.4278371119199026E-3 0
-5.785696910551049E-3 0
6.5001436022361515E-3 0
-8.880532988358109E-3 0
5.241434847070899E-3 0
3.717120730961932E-3 0
-2.569795387433474E-3 0
3.66223190134702E-4 0
-2.397577593210309E-3 0
-1.3544022886559716E-2 0
5.609896246350267E-4 0
-1.3509112125502364E-2 0
-2.402137097854135E-3 0
7.596922755906732E-4 0
-1.205256443120601E-3 0
4.739065540165765E-3 0
5.79319557232503E-3 0
-8.766426997265448E-3 0
7.264400284764133E-3 0
-6.453320560380043E-3 0
-2.3581137240078465E-3 0
-9.98899572976551E-3 0
6.7570640563134055E-3 0
5.87124923271918E-3 0
-1.7861929133416382E-3 0
4.096411100586337E-3 0
4.447846587196397E-3 0
-9.60721870125674E-5 0
1.0854416087496934E-3 0
-2.4231059159595465E-3 0
-1.665777881068784E-3 0
-7.909264473614679E-4 0
-1.2528600880011432E-3 0
-1.5278929343247774E-3 0
-2.5783922623428394E-3 0
-8.734802511590783E-4 0
4.7761846569613164E-1 0
-1.6487290589015777E-3 0
-3.1993307517288756E-3 0
-1.74229168016603E-3 0
-1.1477090530092658E-3 0
-6.483279713913317E-4 0
-1.4469699910644735E-3 0
-2.345470720991641E-3 0
1.290426134275966E-3 0
-2.2939156368288814E-4 0
4.528945482719901E-3 0
4.252139194289007E-3 0
-1.4873754084164907E-3 0
8.307330332022283E-3 0
-9.189985639501038E-3 0
-3.55794176815262E-3 0
-6.139480855664679E-3 0
6.578454824622554E-3 0
-9.571556100962272E-3 0
5.1610199833320896E-3 0
3.9338019552950165E-3 0
-2.7158850554331654E-3 0
2.8034770994204706E-4 0
-2.6428720530854255E-3 0
-1.4057483688348986E-2 0
5.89666095535003E-4 0
-1.4810185872925702E-2 0
-1.8447326567576077E-3 0
9.47641460147149E-4 0
-2.2382657188388957E-3 0
3.986439253158976E-3 0
5.867349665883048E-3 0
-9.758788394685141E-3 0
7.711929951688982E-3 0
-6.805080631051883E-3 0
-2.2338228302251806E-3 0
-1.0744531486391741E-2 0
6.929487680029654E-3 0
-1.786192913341436E-3 0
-1.3631794714440983E-3 0
4.210795737292391E-3 0
4.456369954843323E-3 0
-1.0064282802754287E-4 0
1.1797283674374684E-3 0
-2.2652004532420947E-3 0
-1.4991071737656004E-3 0
-6.175165418410045E-4 0
-1.163579749378567E-3 0
-1.7359751101205523E-3 0
-3.2007218603991566E-3 0
-1.6487290589015777E-3 0
4.7761846569613164E-1 0
-8.745884845611702E-4 0
-2.573360136484785E-3 0
-1.5408032561412953E-3 0
-1.2265162998105715E-3 0
-8.395777074863033E-4 0
-1.580849940308415E-3 0
-2.5652538814835268E-3 0
1.3044947908014528E-3 0
-3.990661563903465E-4 0
4.751641341118525E-3 0
4.1795518780573405E-3 0
8.307330332022257E-3 0
5.974074731154397E-3 0
-9.395703449480323E-3 0
-3.5554842784336124E-3 0
-5.791651347262053E-3 0
6.962077007198686E-3 0
-9.243861512094845E-3 0
5.534133887000622E-3 0
4.184585064669056E-3 0
-2.341033538282384E-3 0
9.886568095566336E-4 0
-1.8537655350075195E-3 0
-1.481018587292569E-2 0
5.89666095535017E-4 0
-1.4064673980795929E-2 0
-2.6102232838993286E-3 0
1.976696674418689E-4 0
-2.5522740025810953E-3 0
3.6470079698104727E-3 0
5.627255998218582E-3 0
-1.0281155338892857E-2 0
7.557157392285489E-3 0
-7.319935966056177E-3 0
-2.5087652912304456E-3 0
-1.0133670395602505E-2 0
5.240674847201322E-3 0
-1.2342404263698712E-3 0
-1.2710346588881698E-3 0
4.0029508838976295E-3 0
4.391511062135659E-3 0
1.1080229079747307E-4 0
1.257296576407488E-3 0
-1.8785685848181808E-3 0
-9.99555418702261E-4 0
-1.3318504343625022E-4 0
-2.320553114473074E-4 0
-1.1946469732938738E-3 0
-3.199330751728879E-3 0
-8.745884845611724E-4 0
4.800979804042099E-1 0
-1.011257428782861E-3 0
-2.4229593506667037E-3 0
-1.5848170924236034E-3 0
-1.2358860882650533E-3 0
-8.910226279790942E-4 0
-1.702526995250852E-3 0
-2.5652132711542967E-3 0
1.293160351352936E-3 0
-4.876777692502118E-4 0
4.298739052924935E-3 0
-1.1637835689827883E-2 0
6.008195097086958E-3 0
5.706487817573405E-3 0
-8.84382938258431E-3 0
-3.303381467948055E-3 0
-5.739153811641962E-3 0
6.7609107114414676E-3 0
-8.432764200804892E-3 0
5.59294583646889E-3 0
4.839992808885607E-3 0
-1.2397689846921247E-3 0
7.597359921498387E-4 0
-2.3930719881129743E-3 0
-1.3516334649440537E-2 0
5.71149175412972E-4 0
-1.3570732974120692E-2 0
-2.3349376981141737E-3 0
2.4085855071829718E-4 0
-2.3404018501800433E-3 0
3.320306854571898E-3 0
5.897382043263707E-3 0
-9.87502317242033E-3 0
7.819345203362334E-3 0
-7.0417284050455775E-3 0
-3.057755993512757E-3 0
5.514464196598556E-3 0
3.994709276265553E-3 0
-1.2593173754241475E-3 0
-1.2393917981783167E-3 0
4.182725678724639E-3 0
4.435237454786289E-3 0
1.405986233656406E-4 0
1.5371399247229897E-3 0
-1.3571207167726394E-3 0
-3.2782076924476537E-4 0
9.289071728292233E-4 0
-2.2737827166468625E-4 0
-1.7422916801660328E-3 0
-2.5733601364847816E-3 0
-1.0112574287828664E-3 0
4.799612505344652E-1 0
-5.126314549515049E-4 0
-2.3940909548309922E-3 0
-1.4003114674674079E-3 0
-1.2911955266827408E-3 0
-8.799306570733088E-4 0
-1.7071291020717247E-3 0
-2.3414589423203414E-3 0
1.093404589108519E-3 0
-5.703231583686335E-4 0
-4.014351483697413E-3 0
-8.204109974666583E-3 0
5.980151740847193E-3 0
5.436175680772903E-3 0
-9.029405632630135E-3 0
-3.6487701895320385E-3 0
-5.3726185115689305E-3 0
7.099013782538355E-3 0
-8.085407919874048E-3 0
6.478371560456156E-3 0
5.086784767525223E-3 0
-1.9951036545035276E-3 0
2.4133097018860214E-4 0
-1.903912793940774E-3 0
-1.2780872836050122E-2 0
6.4211876818554E-4 0
-1.2948091607841564E-2 0
-1.4413486276305487E-3 0
5.313098679290686E-4 0
-1.820129339395529E-3 0
3.8966487089511065E-3 0
6.357019325272119E-3 0
-1.007027522161416E-2 0
7.890933780543704E-3 0
-6.744422037387586E-3 0
-3.363648095935303E-4 0
4.175008702434929E-3 0
3.935870008119459E-3 0
-1.266090357743106E-3 0
-1.235534603586953E-3 0
4.084773349871573E-3 0
4.397811879923863E-3 0
3.046786761928044E-4 0
1.8791914269767097E-3 0
-1.018893804771893E-3 0
-3.2052147499099466E-4 0
-1.4631400098840286E-4 0
-1.1477090530092654E-3 0
-1.5408032561412973E-3 0
-2.422959350666711E-3 0
-5.126314549514968E-4 0
4.808039652888027E-1 0
8.274498983956213E-5 0
-2.1472184714064206E-3 0
-1.062901887490864E-3 0
-1.2527293461664845E-3 0
-4.8648198859482333E-4 0
-1.5279902028829996E-3 0
-2.292811456266049E-3 0
9.992429791626785E-4 0
-7.312313740510426E-3 0
-2.7857479828022683E-3 0
-8.531331377186204E-3 0
5.75689230193311E-3 0
5.331775489535742E-3 0
-8.759724372537695E-3 0
-3.038983602341537E-3 0
-4.991341990556972E-3 0
7.457594123634103E-3 0
-7.869587093488449E-3 0
6.327431235356632E-3 0
4.315580251206232E-3 0
-2.48442706622527E-3 0
4.4383101482825315E-4 0
-1.9114522061914065E-3 0
-1.2729934329573955E-2 0
1.7069500596152358E-3 0
-1.1892138645986159E-2 0
-7.480779508873482E-4 0
9.804074870940632E-4 0
-1.3994671318924626E-3 0
3.6152664987607413E-3 0
6.18623664182246E-3 0
-1.007467566039766E-2 0
7.707902571929225E-3 0
1.532091745694977E-3 0
-1.4485289861689447E-4 0
4.171007858333658E-3 0
3.8722166523485375E-3 0
-1.2686418534765141E-3 0
-1.2510965060393026E-3 0
4.096456746078627E-3 0
4.484780646409362E-3 0
4.2370304344017164E-4 0
1.8897638366339696E-3 0
-1.3742537576183348E-3 0
-9.745167506391891E-4 0
-6.483279713913284E-4 0
-1.2265162998105796E-3 0
-1.5848170924236049E-3 0
-2.394090954830989E-3 0
8.274498983956526E-5 0
4.812510053125489E-1 0
7.096339712533216E-4 0
-2.045650781686558E-3 0
-5.998124751586236E-4 0
-1.2332424789570026E-3 0
-1.6936527204563818E-4 0
-1.5824559189291443E-3 0
-2.171666066762303E-3 0
9.410350428910958E-3 0
-5.389360132208373E-3 0
-2.716824156610071E-3 0
-8.717698318451164E-3 0
5.845505128152374E-3 0
5.524147177046325E-3 0
-8.360823404506081E-3 0
-2.6758606754656022E-3 0
-4.865995882661995E-3 0
7.511188734714959E-3 0
-8.397393816329793E-3 0
5.56717124135477E-3 0
3.8631272347007277E-3 0
-2.4289619841228395E-3 0
4.6688298758530776E-4 0
-1.2929959036918587E-3 0
-1.1854585922914836E-2 0
2.5844455280028913E-3 0
-1.1405616692044226E-2 0
-2.2254468019863868E-4 0
1.0366590219391815E-3 0
-1.5798959043464608E-3 0
3.512272772209575E-3 0
5.717465391042207E-3 0
-9.58870859708041E-3 0
-2.716112440952169E-3 0
1.218654478038494E-3 0
-1.577364639442866E-4 0
4.163108576297333E-3 0
3.8324743822749177E-3 0
-1.2686156228853525E-3 0
-1.242935001017388E-3 0
4.111554674586257E-3 0
4.4977331134882234E-3 0
2.821084195616463E-4 0
1.5639674425217802E-3 0
-1.917053030705516E-3 0
-1.4469699910644714E-3 0
-8.395777074863044E-4 0
-1.2358860882650472E-3 0
-1.4003114674674172E-3 0
-2.1472184714064E-3 0
7.096339712533144E-4 0
4.8142814832608366E-1 0
1.3085262211856396E-3 0
-2.0839987141160823E-3 0
-1.4474042833278892E-4 0
-1.2782870728662158E-3 0
2.640824132820649E-5 0
-1.4495475752047E-3 0
-1.2205517031639464E-2 0
6.987275670489202E-3 0
-5.5336401649014235E-3 0
-2.542230852949473E-3 0
-8.755017288811779E-3 0
6.10232353327662E-3 0
5.7621550108630445E-3 0
-8.221676901917462E-3 0
-2.5640484103605756E-3 0
-5.164545273848056E-3 0
7.313383074187555E-3 0
-8.894099237364443E-3 0
5.800327211371441E-3 0
3.7140304243220832E-3 0
-2.212730480877989E-3 0
5.988006420346245E-4 0
-7.634470726503324E-4 0
-1.1433982404631667E-2 0
3.206276005318906E-3 0
-1.1397814344774972E-2 0
2.58593801744074E-5 0
8.426265308668335E-4 0
-1.8377670067031286E-3 0
3.8572309307032984E-3 0
5.456622387883274E-3 0
-1.5226685084274673E-3 0
-1.9395001177830449E-3 0
1.2697151624721842E-3 0
-1.8877001728175892E-4 0
4.183660648879282E-3 0
3.8108561234095474E-3 0
-1.2635559631290231E-3 0
-1.2279656733674932E-3 0
4.06713697386633E-3 0
4.434226023089434E-3 0
1.0746193212347063E-4 0
1.3066749571391475E-3 0
-2.3454707209916424E-3 0
-1.5808499403084128E-3 0
-8.910226279790854E-4 0
-1.291195526682755E-3 0
-1.0629018874908506E-3 0
-2.0456507816865575E-3 0
1.3085262211856078E-3 0
4.8135630270340934E-1 0
1.9209872807687256E-3 0
-2.315663645315439E-3 0
2.6858947788673443E-4 0
-1.2222440525241256E-3 0
-3.1951989155664054E-5 0
7.264623084964568E-3 0
-8.968360744587204E-3 0
7.221611876404689E-3 0
-5.706563249759668E-3 0
-2.281875975405216E-3 0
-8.758050426582505E-3 0
6.217987374111178E-3 0
5.836565501498761E-3 0
-8.414184833308221E-3 0
-2.6786743612858474E-3 0
-5.749669372081771E-3 0
7.196863068213318E-3 0
-9.82422475978263E-3 0
5.692692363316065E-3 0
3.3878443159616883E-3 0
-1.8556877642332142E-3 0
8.901785686134996E-4 0
-3.01487017123268E-4 0
-1.1434009332032941E-2 0
3.6814372227741516E-3 0
-1.1773202757372718E-2 0
3.627958411421916E-4 0
5.717715841374246E-4 0
-1.8413740190567818E-3 0
4.005437378055441E-3 0
-2.280188969871185E-4 0
-1.039414765571789E-3 0
-1.9355190943301966E-3 0
1.3183319511028667E-3 0
-2.3516479167617926E-4 0
4.219712501438631E-3 0
3.801960497481329E-3 0
-1.2873795530872244E-3 0
-1.2044113421588985E-3 0
4.028332689877255E-3 0
4.46855589946905E-3 0
6.370946596432384E-5 0
1.2904261342759644E-3 0
-2.565253881483525E-3 0
-1.702526995250849E-3 0
-8.799306570733132E-4 0
-1.2527293461664787E-3 0
-5.998124751586275E-4 0
-2.0839987141160914E-3 0
1.9209872807687406E-3 0
4.8099672071575467E-1 0
2.6599524447606013E-3 0
-2.7216914275117405E-3 0
5.588663058174927E-4 0
-9.459212442913107E-4 0
5.178101382290939E-3 0
5.40665901104661E-3 0
-9.177527361832805E-3 0
7.5709323410607E-3 0
-5.957731700597131E-3 0
-2.0633704191359847E-3 0
-8.791159299308062E-3 0
6.156321334045646E-3 0
5.750886680667721E-3 0
-8.892482321987654E-3 0
-2.9752872983773216E-3 0
-6.48346943331919E-3 0
7.623642985717471E-3 0
-1.0192868372921346E-2 0
5.9275325953410726E-3 0
3.757565078398764E-3 0
-1.5599607002263337E-3 0
9.189765639882841E-4 0
-3.010831077809987E-5 0
-1.1790215639443949E-2 0
4.2710046500907635E-3 0
-1.2436465893072296E-2 0
9.417173518223884E-4 0
2.0708422613284762E-4 0
-1.7705560473276968E-3 0
-6.151920670644215E-4 0
-1.5184582958387003E-4 0
-9.84294870683149E-4 0
-1.9629922376515003E-3 0
1.3891689125192128E-3 0
-2.9852423237583867E-4 0
4.24449279847506E-3 0
3.827229734270125E-3 0
-1.3278407427669242E-3 0
-1.1447897061159906E-3 0
4.153699926577056E-3 0
4.408112758991563E-3 0
-2.2939156368288822E-4 0
1.3044947908014532E-3 0
-2.5652132711542993E-3 0
-1.7071291020717217E-3 0
-4.8648198859481704E-4 0
-1.2332424789570143E-3 0
-1.4474042833276788E-4 0
-2.315663645315462E-3 0
2.659952444760624E-3 0
4.8029133667099455E-1 0
3.585760511381344E-3 0
-3.003576854432527E-3 0
2.63688862427354E-4 0
-2.6597000764204026E-3 0
3.7597070231155665E-3 0
5.671844718199505E-3 0
-9.556851832435985E-3 0
8.019309009987064E-3 0
-6.2338689734914E-3 0
-2.0165337361809357E-3 0
-8.843408455407525E-3 0
5.984752031593395E-3 0
5.711083206797848E-3 0
-9.45384699398966E-3 0
-2.4301750364973665E-3 0
-6.953993339636978E-3 0
7.706070100870593E-3 0
-9.802959665316014E-3 0
6.183438316956934E-3 0
3.434059728268651E-3 0
-1.6965620037100034E-3 0
7.924415511463132E-4 0
3.4787546976701206E-4 0
-1.2436877805670956E-2 0
5.143135544762936E-3 0
-1.3291376511391015E-2 0
1.4708662408381176E-3 0
3.6930311861043286E-4 0
-5.436813143097863E-4 0
-3.737066505486224E-4 0
-1.462829943332036E-4 0
-9.446750571762885E-4 0
-2.0327370404254344E-3 0
1.4794811060989627E-3 0
-3.49583416935547E-4 0
4.2439724043017955E-3 0
3.894747789928717E-3 0
-1.418789035760066E-3 0
-1.170901744569917E-3 0
4.0647084884873445E-3 0
4.528945482719901E-3 0
-3.990661563903506E-4 0
1.29316035135293E-3 0
-2.341458942320341E-3 0
-1.5279902028829877E-3 0
-1.69365272045651E-4 0
-1.278287072866206E-3 0
2.685894778867395E-4 0
-2.7216914275117604E-3 0
3.585760511381335E-3 0
4.792761537139633E-1 0
4.377226714359322E-3 0
-2.5292845815359627E-3 0
1.4865045906649102E-3 0
-2.044780399374888E-3 0
3.614607035706804E-3 0
6.0560335422221905E-3 0
-1.0122973149434762E-2 0
8.429260553262707E-3 0
-6.401490923673475E-3 0
-2.0998985887138114E-3 0
-8.898733813525853E-3 0
5.9752589239193184E-3 0
6.036230739202027E-3 0
-9.916790070664603E-3 0
-2.2684317091505903E-3 0
-7.28532708713078E-3 0
7.7471427318427846E-3 0
-1.024165028325406E-2 0
6.0767626348955245E-3 0
3.4469109577324355E-3 0
-1.8620344590311135E-3 0
5.687134757675281E-4 0
9.470349825311125E-4 0
-1.3287283941018893E-2 0
6.236028910409104E-3 0
-1.3878071584433162E-2 0
1.0872026357047289E-3 0
-1.5177361065402699E-3 0
-4.2136411321805594E-4 0
-3.47052863008216E-4 0
-1.4808399093139358E-4 0
-9.139606245656869E-4 0
-2.129008229515113E-3 0
1.4813440156346731E-3 0
-2.998595715247909E-4 0
4.220244480873869E-3 0
4.122064851271371E-3 0
-1.3927473338700104E-3 0
-1.3996042035296636E-3 0
4.252139194289007E-3 0
4.751641341118519E-3 0
-4.8767776925021214E-4 0
1.0934045891085188E-3 0
-2.2928114562660415E-3 0
-1.5824559189291474E-3 0
2.6408241328202642E-5 0
-1.222244052524112E-3 0
5.588663058174825E-4 0
-3.003576854432559E-3 0
4.377226714359341E-3 0
4.7892078314393016E-1 0
3.281357519788884E-3 0
-1.9229652136235038E-4 0
1.3857546159882592E-3 0
-1.9938328559474423E-3 0
3.3769525031068577E-3 0
6.502300688836143E-3 0
-1.038959637508749E-2 0
8.195236699685608E-3 0
-6.111242827535872E-3 0
-2.382844097121612E-3 0
-8.979069892933466E-3 0
5.828820491971858E-3 0
6.7109674063032905E-3 0
-1.0733604434178614E-2 0
-2.519692343443577E-3 0
-6.995632728758079E-3 0
7.981968839875541E-3 0
-1.0030872215794386E-2 0
5.72869454243793E-3 0
3.861074204050757E-3 0
-1.8334148641429061E-3 0
2.1678486394481665E-4 0
1.4784089062258898E-3 0
-1.3874702719702519E-2 0
6.1712285790001525E-3 0
-1.3239070257578874E-2 0
1.9916161102636366E-3 0
-1.0138215898454273E-3 0
-4.5969542279523777E-4 0
-3.9185788269011584E-4 0
-1.7998730575500267E-4 0
-1.015288714406644E-3 0
-2.137240715575928E-3 0
1.3515500406325073E-3 0
-1.8684505033517179E-4 0
4.301604519155503E-3 0
4.2950693055312196E-3 0
-1.22705247279181E-3 0
-1.4873754084164953E-3 0
4.179551878057343E-3 0
4.298739052924933E-3 0
-5.703231583686363E-4 0
9.992429791626785E-4 0
-2.171666066762306E-3 0
-1.4495475752046914E-3 0
-3.195198915568468E-5 0
-9.459212442912858E-4 0
2.63688862427346E-4 0
-2.529284581535966E-3 0
3.281357519788876E-3 0
4.7961912523970435E-1 0
-1.5857608626757513E-2 0
-5.795279683288989E-4 0
1.3672712663426398E-3 0
-2.000728957625305E-3 0
3.570881128563015E-3 0
6.225360216865836E-3 0
-9.875568628432948E-3 0
7.559738348484247E-3 0
-5.830577779255112E-3 0
-2.830208574155608E-3 0
-9.001311905299632E-3 0
5.603095339438951E-3 0
6.874429927842712E-3 0
-1.0078612643415577E-2 0
-2.7896074929671597E-3 0
-6.44572097537983E-3 0
7.819769750319006E-3 0
-9.547323059976121E-3 0
5.4690393735779465E-3 0
4.014299168600159E-3 0
-1.7630660533759176E-3 0
3.753023675786361E-4 0
1.0901933574288649E-3 0
-1.3238048585093098E-2 0
4.525786553615037E-3 0
5.65180508045903E-3 0
-1.4827612239036603E-2 0
-5.970511901971894E-4 0
1.7710663871258578E-3 0
-2.8625764768167015E-3 0
5.3971026969260386E-3 0
7.050348937747002E-3 0
-1.2025570575734381E-2 0
9.283801141535179E-3 0
-7.240472881325888E-3 0
-4.044016876858426E-3 0
-1.1631302431218224E-2 0
8.307330332022288E-3 0
8.307330332022262E-3 0
-1.1637835689827895E-2 0
-4.0143514836974105E-3 0
-7.312313740510428E-3 0
9.41035042891096E-3 0
-1.2205517031639468E-2 0
7.264623084964572E-3 0
5.178101382290948E-3 0
-2.659700076420407E-3 0
1.4865045906648998E-3 0
-1.9229652136235054E-4 0
-1.5857608626757516E-2 0
7.011665772695563E-1 0
-3.607939988646715E-2 0
9.358522199808846E-3 0
1.9282933814396572E-3 0
2.590543985580465E-3 0
-7.312398261889811E-4 0
6.2664076041870735E-3 0
1.616314128941081E-2 0
-1.2174952421757217E-2 0
8.955582899389733E-3 0
-2.8175293166978112E-2 0
-2.761760938297143E-2 0
1.4601077966094864E-2 0
1.4601077966094682E-2 0
-2.7612605947650668E-2 0
-2.8198012132322887E-2 0
9.008593535428152E-3 0
-1.2258341675789137E-2 0
1.624905450119998E-2 0
6.24851714452361E-3 0
-9.239358092217559E-4 0
3.1956992630628764E-3 0
4.641158170071515E-4 0
1.147138888976118E-2 0
-3.917058199180604E-2 0
-1.4827612239035512E-2 0
3.073977178374712E-3 0
-1.0824913964450258E-2 0
-4.922485647284173E-4 0
1.2388725271253044E-3 0
-2.1044969378075425E-3 0
3.9100994330295525E-3 0
5.1195242109604785E-3 0
-8.751742856172756E-3 0
6.680825434390746E-3 0
-5.696033382138193E-3 0
-3.427837111919905E-3 0
-9.189985639501038E-3 0
5.974074731154393E-3 0
6.008195097086958E-3 0
-8.204109974666585E-3 0
-2.7857479828022735E-3 0
-5.389360132208371E-3 0
6.987275670489204E-3 0
-8.968360744587197E-3 0
5.4066590110466075E-3 0
3.759707023115559E-3 0
-2.044780399374888E-3 0
1.3857546159882553E-3 0
-5.795279683288985E-4 0
-3.607939988646714E-2 0
6.070149045046607E-1 0
-2.621873293150637E-2 0
6.83020187406298E-3 0
1.5527352088057968E-3 0
2.13209637301212E-3 0
-1.9215615413809673E-4 0
5.060111270374244E-3 0
1.2380877524578067E-2 0
-8.147721350179144E-3 0
7.119887892478793E-3 0
-2.044355060220718E-2 0
-2.1550331055630142E-2 0
1.1062313850552842E-2 0
1.0395381850780497E-2 0
-2.064679377731989E-2 0
-2.1137641866025715E-2 0
6.238599805030462E-3 0
-9.436687154436242E-3 0
1.1790323262333584E-2 0
4.132646104614874E-3 0
-5.162073440109943E-4 0
1.7128880553590913E-3 0
1.103104357819179E-3 0
7.081526430798673E-3 0
-5.970511901987877E-4 0
-1.082399565539653E-2 0
3.059000806872682E-3 0
-1.0846758376650171E-2 0
-5.176585195376971E-4 0
1.2180964338703753E-3 0
-2.110731200152498E-3 0
3.921544587007139E-3 0
5.116498553989093E-3 0
-8.825839845637016E-3 0
6.376391738003535E-3 0
-5.785696910551049E-3 0
-3.5579417681526203E-3 0
-9.395703449480328E-3 0
5.706487817573408E-3 0
5.980151740847195E-3 0
-8.53133137718621E-3 0
-2.7168241566100726E-3 0
-5.5336401649014235E-3 0
7.221611876404691E-3 0
-9.177527361832801E-3 0
5.671844718199515E-3 0
3.614607035706798E-3 0
-1.9938328559474467E-3 0
1.3672712663426354E-3 0
9.358522199808853E-3 0
-2.6218732931506433E-2 0
6.071695555043837E-1 0
-2.602032627904608E-2 0
7.073947089004974E-3 0
1.8539950525562545E-3 0
2.5137271231855914E-3 0
2.860505993374206E-4 0
5.606709607149037E-3 0
1.2819912404185875E-2 0
-8.474880788873828E-3 0
6.094117518506459E-3 0
-2.2576593161861926E-2 0
-2.2271894588413235E-2 0
1.0391642750709638E-2 0
1.048717567269591E-2 0
-2.05837855173754E-2 0
-2.1242996700198306E-2 0
6.344095238258318E-3 0
-9.739030353262356E-3 0
1.1898188179502753E-2 0
3.79602566754594E-3 0
-4.38542672399699E-4 0
1.5125512207006609E-3 0
1.3508721844502356E-3 0
1.771066387127296E-3 0
-4.892327074754214E-4 0
-1.0843507572755911E-2 0
3.0323758797844384E-3 0
-1.0875373278777087E-2 0
-5.376138157533775E-4 0
1.2205046893865278E-3 0
-2.075696064770226E-3 0
3.985395337960456E-3 0
5.188177640804189E-3 0
-8.709777837114492E-3 0
6.500143602236153E-3 0
-6.139480855664682E-3 0
-3.5554842784336137E-3 0
-8.843829382584305E-3 0
5.436175680772904E-3 0
5.756892301933103E-3 0
-8.71769831845117E-3 0
-2.5422308529494666E-3 0
-5.706563249759672E-3 0
7.570932341060702E-3 0
-9.556851832435986E-3 0
6.056033542222194E-3 0
3.3769525031068504E-3 0
-2.000728957625302E-3 0
1.9282933814396522E-3 0
6.8302018740629645E-3 0
-2.602032627904612E-2 0
6.074068562163364E-1 0
-2.574126738294957E-2 0
7.408096845501117E-3 0
2.2609919609309836E-3 0
2.992396664304187E-3 0
7.905933644894537E-4 0
5.995945783042679E-3 0
1.2988739171095715E-2 0
-8.511234571556324E-3 0
6.1744406257557925E-3 0
-2.268113856295608E-2 0
-2.1185272167731032E-2 0
1.0047471907640531E-2 0
1.019291333970374E-2 0
-2.0369734798191992E-2 0
-2.1309918355787424E-2 0
6.592111166414355E-3 0
-1.0069522985865938E-2 0
1.2191623424712314E-2 0
3.4932203683754695E-3 0
-3.731485966745317E-4 0
1.7089817428267286E-3 0
-2.8625764768176556E-3 0
1.2444761844423648E-3 0
-5.103004349639529E-4 0
-1.0871025101726205E-2 0
3.0040988795680787E-3 0
-1.0893453867401155E-2 0
-5.291025450981769E-4 0
1.273829698786408E-3 0
-1.9374616085586769E-3 0
4.209772563484567E-3 0
5.477596727051917E-3 0
-8.880532988358109E-3 0
6.578454824622555E-3 0
-5.791651347262059E-3 0
-3.303381467948055E-3 0
-9.029405632630131E-3 0
5.3317754895357405E-3 0
5.845505128152375E-3 0
-8.755017288811775E-3 0
-2.2818759754052098E-3 0
-5.957731700597144E-3 0
8.019309009987059E-3 0
-1.0122973149434769E-2 0
6.502300688836146E-3 0
3.570881128563006E-3 0
2.590543985580479E-3 0
1.5527352088058274E-3 0
7.073947089004982E-3 0
-2.574126738294957E-2 0
6.077241696378223E-1 0
-2.5370053217787066E-2 0
7.85449106536316E-3 0
2.7885838021751716E-3 0
3.6285560365198195E-3 0
1.5166774401758588E-3 0
7.318203018056133E-3 0
1.3718255354858981E-2 0
-9.12365593013345E-3 0
6.348764222162815E-3 0
-2.2207926249244923E-2 0
-2.2059695324596236E-2 0
1.008221397415767E-2 0
1.014412609661587E-2 0
-2.01272786113453E-2 0
-2.147634353212534E-2 0
6.962992387860494E-3 0
-1.0585671513343295E-2 0
1.2734398471983354E-2 0
3.202880645048275E-3 0
-3.32967937283622E-4 0
5.397102696926554E-3 0
-2.09711500851994E-3 0
1.2276446003060735E-3 0
-5.322765212176852E-4 0
-1.0894053517337651E-2 0
2.9879080712593444E-3 0
-1.0889998081708112E-2 0
-4.917951830984853E-4 0
1.3842214374300132E-3 0
-1.791139676019234E-3 0
4.434532114724048E-3 0
5.241434847070901E-3 0
-9.571556100962272E-3 0
6.962077007198685E-3 0
-5.73915381164196E-3 0
-3.6487701895320367E-3 0
-8.759724372537704E-3 0
5.524147177046329E-3 0
6.102323533276624E-3 0
-8.758050426582504E-3 0
-2.0633704191359873E-3 0
-6.233868973491409E-3 0
8.429260553262706E-3 0
-1.0389596375087493E-2 0
6.225360216865835E-3 0
-7.312398261889754E-4 0
2.1320963730120913E-3 0
1.8539950525562469E-3 0
7.408096845501078E-3 0
-2.537005321778707E-2 0
6.081595514277724E-1 0
-2.483052308658424E-2 0
8.522991522734736E-3 0
3.632595209555335E-3 0
4.578263139152078E-3 0
2.5070212697694263E-3 0
7.033579501127055E-3 0
1.368292322451516E-2 0
-9.140392442043541E-3 0
5.402248244289876E-3 0
-2.220798540908278E-2 0
-2.1470808758764528E-2 0
1.0235374197787025E-2 0
1.0163433247685694E-2 0
-1.99449086477587E-2 0
-2.1738563251025834E-2 0
7.433468890194099E-3 0
-1.126224756547271E-2 0
1.3328319389289491E-2 0
3.760375630754242E-3 0
7.050348937746764E-3 0
3.918446042728812E-3 0
-2.103015758992736E-3 0
1.2176925097586318E-3 0
-5.439963815589175E-4 0
-1.0906917302940801E-2 0
2.9710438583019066E-3 0
-1.0917959724197965E-2 0
-5.363141444965981E-4 0
1.2478136307987116E-3 0
-2.1351797836494392E-3 0
3.7171207309619346E-3 0
5.161019983332086E-3 0
-9.243861512094843E-3 0
6.760910711441465E-3 0
-5.372618511568926E-3 0
-3.0389836023415368E-3 0
-8.36082340450608E-3 0
5.762155010863047E-3 0
6.217987374111172E-3 0
-8.791159299308066E-3 0
-2.016533736180933E-3 0
-6.401490923673475E-3 0
8.195236699685608E-3 0
-9.875568628432942E-3 0
6.266407604187066E-3 0
-1.921561541380733E-4 0
2.5137271231856005E-3 0
2.26099196093101E-3 0
7.854491065363138E-3 0
-2.4830523086584264E-2 0
6.088564995005407E-1 0
-2.3946547722011716E-2 0
9.580950746561515E-3 0
4.664657573071897E-3 0
5.265812434806525E-3 0
2.2785347138869717E-3 0
6.81226830514843E-3 0
1.3290120627293161E-2 0
-9.447574900604832E-3 0
4.902120329298291E-3 0
-2.214732460433255E-2 0
-2.1442153544311414E-2 0
1.0264556146518507E-2 0
1.0159813515543232E-2 0
-1.9873894508736733E-2 0
-2.1938245645252378E-2 0
7.807820965141116E-3 0
-1.1343603162587554E-2 0
1.3133310923914827E-2 0
-1.2025570575734263E-2 0
5.131624075098826E-3 0
3.925077761631158E-3 0
-2.0998415951758477E-3 0
1.2235154007581486E-3 0
-5.478054951716955E-4 0
-1.0954147954308364E-2 0
2.84330238415082E-3 0
-1.1159984362168994E-2 0
-9.307214644786991E-4 0
7.1505400486783E-4 0
-2.5697953874334735E-3 0
3.933801955295018E-3 0
5.5341338870006215E-3 0
-8.432764200804894E-3 0
7.09901378253836E-3 0
-4.99134199055697E-3 0
-2.675860675465619E-3 0
-8.221676901917479E-3 0
5.836565501498766E-3 0
6.156321334045646E-3 0
-8.843408455407532E-3 0
-2.0998985887138106E-3 0
-6.1112428275358665E-3 0
7.5597383484842465E-3 0
1.6163141289410828E-2 0
5.060111270374236E-3 0
2.860505993374186E-4 0
2.992396664304176E-3 0
2.7885838021751803E-3 0
8.52299152273475E-3 0
-2.3946547722011696E-2 0
6.099846945111826E-1 0
-2.2633406434363665E-2 0
1.0788934849614205E-2 0
5.437115479146682E-3 0
5.28219552596088E-3 0
1.9186700229614944E-3 0
6.1138987018987635E-3 0
1.1377805377562108E-2 0
-1.0653406103240013E-2 0
4.3237068713250035E-3 0
-2.2441760931085283E-2 0
-2.1429198792064175E-2 0
1.0155425363056624E-2 0
1.0294563394810032E-2 0
-2.007498368226318E-2 0
-2.1943758387125024E-2 0
7.4619136292177176E-3 0
-1.0478960314927302E-2 0
9.283801141535153E-3 0
-8.712121524207793E-3 0
5.126770962867913E-3 0
3.9208113448596475E-3 0
-2.05442939750082E-3 0
1.2667216208437453E-3 0
-6.153072901607505E-4 0
-1.118834549433529E-2 0
2.4157196380333204E-3 0
-1.1775671884799187E-2 0
-1.5445525860966318E-3 0
3.662231901347034E-4 0
-2.7158850554331623E-3 0
4.184585064669059E-3 0
5.592945836468883E-3 0
-8.085407919874025E-3 0
7.457594123634087E-3 0
-4.8659958826620135E-3 0
-2.5640484103605925E-3 0
-8.414184833308224E-3 0
5.750886680667719E-3 0
5.984752031593394E-3 0
-8.898733813525853E-3 0
-2.3828440971216144E-3 0
-5.830577779255114E-3 0
-1.2174952421757226E-2 0
1.2380877524578065E-2 0
5.606709607149048E-3 0
7.90593364489468E-4 0
3.628556036519799E-3 0
3.6325952095553333E-3 0
9.580950746561498E-3 0
-2.2633406434363706E-2 0
6.115860019494372E-1 0
-2.0938026555687033E-2 0
1.2085654646059667E-2 0
5.770897656485879E-3 0
5.239163466035574E-3 0
1.1737011094767494E-3 0
4.158652885664099E-3 0
9.45347000549297E-3 0
-1.192811615863039E-2 0
3.930986196587318E-3 0
-2.2543238282641286E-2 0
-2.1219365790166173E-2 0
9.890044825963038E-3 0
1.0572754948328973E-2 0
-2.0568052981165093E-2 0
-2.149978423658507E-2 0
6.752820368312961E-3 0
-7.24047288132594E-3 0
6.787957560366873E-3 0
-8.784069583171043E-3 0
5.0803947224196564E-3 0
4.027602896839351E-3 0
-1.9512219965526088E-3 0
1.1574122449987136E-3 0
-9.46019861885822E-4 0
-1.1738139053842555E-2 0
1.6338487034956084E-3 0
-1.2892276547453993E-2 0
-2.3975775932103065E-3 0
2.80347709942048E-4 0
-2.3410335382823876E-3 0
4.839992808885599E-3 0
6.478371560456143E-3 0
-7.869587093488454E-3 0
7.511188734714953E-3 0
-5.164545273848053E-3 0
-2.6786743612858457E-3 0
-8.892482321987662E-3 0
5.711083206797845E-3 0
5.975258923919321E-3 0
-8.979069892933463E-3 0
-2.830208574155597E-3 0
8.955582899389743E-3 0
-8.147721350179144E-3 0
1.2819912404185856E-2 0
5.995945783042664E-3 0
1.5166774401758694E-3 0
4.578263139152074E-3 0
4.664657573071907E-3 0
1.0788934849614224E-2 0
-2.093802655568705E-2 0
6.139627306780812E-1 0
-1.8914081608439746E-2 0
1.258625332093952E-2 0
5.762445337460446E-3 0
4.566403057972599E-3 0
-8.296852057963345E-4 0
1.429766992815932E-3 0
7.986247604376207E-3 0
-1.2010597460606797E-2 0
4.500109331183317E-3 0
-2.242684109826488E-2 0
-2.1056510533016968E-2 0
9.456275154976053E-3 0
1.1191612790457686E-2 0
-2.1774693135297035E-2 0
-2.164316491766165E-2 0
-4.044016876858314E-3 0
-5.4117093317106076E-3 0
6.464383405430234E-3 0
-8.877019458852416E-3 0
5.300652634990462E-3 0
4.297522150458063E-3 0
-2.1718942220009794E-3 0
7.831651281746262E-4 0
-1.3965210799036928E-3 0
-1.2673965618332015E-2 0
6.09981950573606E-4 0
-1.3544022886559707E-2 0
-2.6428720530854368E-3 0
9.886568095566408E-4 0
-1.2397689846921195E-3 0
5.086784767525192E-3 0
6.3274312353566314E-3 0
-8.397393816329785E-3 0
7.31338307418756E-3 0
-5.749669372081766E-3 0
-2.9752872983773134E-3 0
-9.453846993989667E-3 0
6.0362307392020234E-3 0
5.828820491971857E-3 0
-9.001311905299639E-3 0
-2.8175293166978126E-2 0
7.1198878924787976E-3 0
-8.474880788873821E-3 0
1.2988739171095708E-2 0
7.318203018056134E-3 0
2.5070212697694233E-3 0
5.2658124348065275E-3 0
5.437115479146685E-3 0
1.2085654646059665E-2 0
-1.891408160843976E-2 0
6.183627725170096E-1 0
-1.613989515545917E-2 0
1.3249464138985496E-2 0
6.43350538280492E-3 0
2.446408140558855E-4 0
-5.780970967410796E-3 0
1.370565068022147E-3 0
9.592267963525762E-3 0
-1.0874163167558308E-2 0
5.183187545924833E-3 0
-2.250611980260281E-2 0
-2.1783513534084035E-2 0
9.547655139512291E-3 0
1.1346151670314284E-2 0
-2.2293509883976086E-2 0
-1.1631302431218406E-2 0
-3.1738515594702576E-3 0
-5.740620513613272E-3 0
6.432053471816409E-3 0
-8.813330168621123E-3 0
5.275281560364371E-3 0
3.78212968669653E-3 0
-2.440505663547498E-3 0
5.912886805101741E-4 0
-1.973594956369421E-3 0
-1.2754374177791279E-2 0
5.609896246350382E-4 0
-1.4057483688348985E-2 0
-1.853765535007521E-3 0
7.597359921498423E-4 0
-1.995103654503522E-3 0
4.315580251206223E-3 0
5.567171241354762E-3 0
-8.894099237364441E-3 0
7.1968630682133165E-3 0
-6.48346943331919E-3 0
-2.430175036497358E-3 0
-9.916790070664604E-3 0
6.710967406303294E-3 0
5.603095339438955E-3 0
-2.7617609382971427E-2 0
-2.0443550602207185E-2 0
6.094117518506452E-3 0
-8.511234571556323E-3 0
1.3718255354858985E-2 0
7.03357950112705E-3 0
2.2785347138869643E-3 0
5.28219552596087E-3 0
5.770897656485872E-3 0
1.258625332093953E-2 0
-1.6139895155459192E-2 0
6.180464181611657E-1 0
-1.823899793722937E-2 0
1.587261517956846E-2 0
3.450799907520586E-3 0
2.0775905621896933E-4 0
-7.256285027229752E-4 0
3.959287273856397E-3 0
1.1687991972857371E-2 0
-9.85639113849081E-3 0
5.826547231084011E-3 0
-2.246152139032544E-2 0
-2.1416028455274044E-2 0
1.1066660981947515E-2 0
1.055014464912885E-2 0
8.30733033202239E-3 0
-9.138558411996612E-3 0
-3.5681820650841317E-3 0
-6.103601644804059E-3 0
6.72507913606476E-3 0
-9.481217136004898E-3 0
5.224884397571678E-3 0
4.001911529177809E-3 0
-2.593252193443411E-3 0
5.268716198289197E-4 0
-1.9367079157997032E-3 0
-1.3509112125502366E-2 0
5.896660955349872E-4 0
-1.48101858729257E-2 0
-2.3930719881129795E-3 0
2.4133097018860043E-4 0
-2.484427066225272E-3 0
3.86312723470072E-3 0
5.80032721137144E-3 0
-9.824224759782622E-3 0
7.6236429857174754E-3 0
-6.953993339636979E-3 0
-2.268431709150601E-3 0
-1.0733604434178624E-2 0
6.8744299278427155E-3 0
1.460107796609486E-2 0
-2.155033105563014E-2 0
-2.257659316186194E-2 0
6.174440625755786E-3 0
-9.123655930133437E-3 0
1.368292322451516E-2 0
6.812268305148419E-3 0
1.9186700229614903E-3 0
5.2391634660355815E-3 0
5.762445337460441E-3 0
1.3249464138985496E-2 0
-1.8238997937229356E-2 0
6.320406401050565E-1 0
-1.645244515615746E-2 0
1.586188400080634E-2 0
6.482232160065209E-3 0
4.444053158133527E-3 0
1.4108549908560266E-3 0
5.713484425253011E-3 0
1.3905398067419177E-2 0
-9.990748216839903E-3 0
7.349504626101849E-3 0
-2.3342440601069166E-2 0
-2.2365430281420896E-2 0
1.191030160669127E-2 0
8.307330332022257E-3 0
5.922647503649876E-3 0
-9.385463152548696E-3 0
-3.5913634892943253E-3 0
-5.938275658704196E-3 0
6.871738042241271E-3 0
-9.30772592633443E-3 0
5.466024313117834E-3 0
4.061952202679309E-3 0
-2.587557448169254E-3 0
2.8249267227092634E-4 0
-2.4021370978541423E-3 0
-1.4810185872925697E-2 0
5.89666095535015E-4 0
-1.3516334649440537E-2 0
-1.9039127939407751E-3 0
4.4383101482825234E-4 0
-2.428961984122833E-3 0
3.714030424322087E-3 0
5.692692363316059E-3 0
-1.0192868372921353E-2 0
7.706070100870592E-3 0
-7.2853270871307725E-3 0
-2.5196923434435722E-3 0
-1.0078612643415582E-2 0
1.4601077966094686E-2 0
1.1062313850552846E-2 0
-2.2271894588413232E-2 0
-2.2681138562956085E-2 0
6.348764222162811E-3 0
-9.140392442043545E-3 0
1.3290120627293156E-2 0
6.113898701898764E-3 0
1.1737011094767472E-3 0
4.5664030579726E-3 0
6.433505382804919E-3 0
1.5872615179568464E-2 0
-1.6452445156157458E-2 0
6.320406401050567E-1 0
-1.823070654140298E-2 0
1.321181561904519E-2 0
5.859042214711495E-3 0
5.042024545911274E-3 0
2.2825309181356414E-3 0
6.178512728205016E-3 0
1.4737069124569655E-2 0
-1.0731603672181572E-2 0
8.341103134769674E-3 0
-2.468136035439566E-2 0
-2.177610876444483E-2 0
-1.1637835689827934E-2 0
5.75421466306358E-3 0
5.661412366009918E-3 0
-8.775742379400353E-3 0
-3.3705865380285263E-3 0
-5.773002172288258E-3 0
6.695901496162142E-3 0
-8.562053048417971E-3 0
5.367880238725158E-3 0
4.416009969299939E-3 0
-2.029430620148214E-3 0
7.596922755906802E-4 0
-1.8447326567576018E-3 0
-1.406467398079593E-2 0
5.711491754130151E-4 0
-1.278087283605011E-2 0
-1.911452206191402E-3 0
4.6688298758530694E-4 0
-2.212730480877993E-3 0
3.387844315961692E-3 0
5.927532595341068E-3 0
-9.802959665316023E-3 0
7.747142731842786E-3 0
-6.995632728758079E-3 0
-2.789607492967158E-3 0
-2.761260594765066E-2 0
1.03953818507805E-2 0
1.0391642750709638E-2 0
-2.118527216773103E-2 0
-2.220792624924493E-2 0
5.402248244289865E-3 0
-9.447574900604836E-3 0
1.1377805377562118E-2 0
4.158652885664114E-3 0
-8.296852057963564E-4 0
2.4464081405587465E-4 0
3.450799907520577E-3 0
1.586188400080634E-2 0
-1.8230706541402995E-2 0
6.180431314198147E-1 0
-1.6141995315892017E-2 0
1.2588287681452934E-2 0
5.7882874697342615E-3 0
5.193514627590724E-3 0
2.5390204832226554E-3 0
6.427117686629695E-3 0
1.48764693855107E-2 0
-1.0465748500421286E-2 0
8.366336519285448E-3 0
-2.26658215955844E-2 0
-4.014351483697461E-3 0
-8.488457266195128E-3 0
5.892155780783507E-3 0
5.603431502267944E-3 0
-8.852451322494546E-3 0
-3.5117527451746255E-3 0
-5.3359028947096215E-3 0
7.030898680362593E-3 0
-8.23343893854281E-3 0
6.260061551932068E-3 0
5.0868434633911065E-3 0
-1.2052564431205939E-3 0
9.476414601471547E-4 0
-2.6102232838993394E-3 0
-1.357073297412068E-2 0
6.421187681854915E-4 0
-1.2729934329573981E-2 0
-1.2929959036918545E-3 0
5.988006420346257E-4 0
-1.8556877642332207E-3 0
3.757565078398768E-3 0
6.183438316956938E-3 0
-1.0241650283254064E-2 0
7.981968839875547E-3 0
-6.445720975379829E-3 0
-2.8198012132322887E-2 0
-2.064679377731989E-2 0
1.0487175672695914E-2 0
1.0047471907640522E-2 0
-2.2059695324596243E-2 0
-2.220798540908278E-2 0
4.902120329298302E-3 0
-1.0653406103240021E-2 0
9.453470005492964E-3 0
1.4297669928159578E-3 0
-5.7809709674108015E-3 0
2.0775905621896358E-4 0
6.482232160065208E-3 0
1.3211815619045192E-2 0
-1.614199531589201E-2 0
6.184496098962321E-1 0
-1.9126563557106843E-2 0
1.244453285047485E-2 0
4.964060143917374E-3 0
5.754231795265149E-3 0
2.1874415301280964E-3 0
7.227493696977005E-3 0
1.3807798535162685E-2 0
-9.796989459649262E-3 0
8.226294690062322E-3 0
-7.312313740510378E-3 0
-2.892823797670101E-3 0
-8.573091231407752E-3 0
5.864640763992212E-3 0
5.51392027328524E-3 0
-8.599660292541443E-3 0
-2.9485851756021427E-3 0
-4.976034111294059E-3 0
7.420059466903113E-3 0
-7.869591423518367E-3 0
6.545589435213951E-3 0
4.739065540165765E-3 0
-2.2382657188388983E-3 0
1.9766966744187074E-4 0
-2.334937698114171E-3 0
-1.294809160784159E-2 0
1.7069500596152876E-3 0
-1.1854585922914858E-2 0
-7.634470726503434E-4 0
8.901785686135045E-4 0
-1.55996070022635E-3 0
3.4340597282686448E-3 0
6.076762634895539E-3 0
-1.0030872215794386E-2 0
7.81976975031899E-3 0
9.00859353542816E-3 0
-2.1137641866025722E-2 0
-2.0583785517375407E-2 0
1.0192913339703735E-2 0
1.0082213974157674E-2 0
-2.1470808758764535E-2 0
-2.2147324604332552E-2 0
4.323706871325008E-3 0
-1.1928116158630367E-2 0
7.98624760437622E-3 0
1.3705650680221426E-3 0
-7.256285027229671E-4 0
4.4440531581335235E-3 0
5.859042214711494E-3 0
1.2588287681452932E-2 0
-1.9126563557106825E-2 0
6.14491620143865E-1 0
-2.1857564957076678E-2 0
1.2081952588843469E-2 0
3.118115302309012E-3 0
6.150733945896614E-3 0
2.2216641378815206E-4 0
6.574255446557209E-3 0
1.3048943645156871E-2 0
-8.877478858985252E-3 0
9.410350428910981E-3 0
-5.429080796736896E-3 0
-2.7271149632300306E-3 0
-8.653053288019331E-3 0
5.962517434073681E-3 0
5.64167975139372E-3 0
-8.281824523695443E-3 0
-2.6475154806498247E-3 0
-4.865989456885667E-3 0
7.5487396439620075E-3 0
-8.249040611548622E-3 0
5.793195572325032E-3 0
3.986439253158974E-3 0
-2.5522740025810905E-3 0
2.4085855071829087E-4 0
-1.4413486276305422E-3 0
-1.1892138645986183E-2 0
2.584445528002962E-3 0
-1.1433982404631659E-2 0
-3.0148701712328323E-4 0
9.189765639883011E-4 0
-1.6965620037100078E-3 0
3.446910957732408E-3 0
5.72869454243792E-3 0
-9.547323059976106E-3 0
-1.225834167578914E-2 0
6.238599805030467E-3 0
-2.1242996700198295E-2 0
-2.036973479819199E-2 0
1.0144126096615864E-2 0
1.023537419778702E-2 0
-2.144215354431141E-2 0
-2.2441760931085256E-2 0
3.930986196587339E-3 0
-1.2010597460606792E-2 0
9.592267963525749E-3 0
3.959287273856397E-3 0
1.4108549908560275E-3 0
5.042024545911269E-3 0
5.7882874697342546E-3 0
1.2444532850474851E-2 0
-2.1857564957076667E-2 0
6.132119961581581E-1 0
-2.497927050694712E-2 0
1.2512333198293273E-2 0
4.0338263275534723E-4 0
6.746802861260792E-3 0
-1.74329743110293E-3 0
7.148524723864168E-3 0
1.2542589323269227E-2 0
-1.2205517031639562E-2 0
6.975317907737464E-3 0
-5.537146969722821E-3 0
-2.518173447427031E-3 0
-8.70476852914925E-3 0
6.158285188320844E-3 0
5.798333330165915E-3 0
-8.221656896427688E-3 0
-2.59242999489624E-3 0
-5.17990496793313E-3 0
7.38086989428865E-3 0
-8.766426997265452E-3 0
5.86734966588305E-3 0
3.647007969810469E-3 0
-2.340401850180043E-3 0
5.313098679290618E-4 0
-7.480779508873475E-4 0
-1.1405616692044223E-2 0
3.206276005318866E-3 0
-1.1434009332032934E-2 0
-3.010831077810665E-5 0
7.924415511463267E-4 0
-1.862034459031093E-3 0
3.861074204050768E-3 0
5.469039373577944E-3 0
1.6249054501199983E-2 0
-9.436687154436246E-3 0
6.344095238258326E-3 0
-2.130991835578743E-2 0
-2.0127278611345306E-2 0
1.0163433247685693E-2 0
1.0264556146518524E-2 0
-2.142919879206417E-2 0
-2.254323828264129E-2 0
4.5001093311833025E-3 0
-1.0874163167558315E-2 0
1.168799197285737E-2 0
5.713484425253019E-3 0
2.2825309181356388E-3 0
5.1935146275907266E-3 0
4.964060143917383E-3 0
1.2081952588843462E-2 0
-2.4979270506947107E-2 0
6.134674318740253E-1 0
-2.847597711558373E-2 0
1.3763823160332993E-2 0
-2.5453043826185215E-3 0
7.657908745293057E-3 0
-2.8909047887124614E-3 0
6.521873913013028E-3 0
7.264623084964735E-3 0
-8.976880096056678E-3 0
7.213864487945026E-3 0
-5.703641977276108E-3 0
-2.2668983240194825E-3 0
-8.741067803962487E-3 0
6.218003867606545E-3 0
5.8003608266496065E-3 0
-8.493121670709146E-3 0
-2.7689060844274154E-3 0
-5.785226685185672E-3 0
7.2644002847641375E-3 0
-9.758788394685143E-3 0
5.627255998218578E-3 0
3.3203068545719005E-3 0
-1.820129339395535E-3 0
9.804074870940658E-4 0
-2.2254468019863573E-4 0
-1.1397814344774977E-2 0
3.6814372227741738E-3 0
-1.179021563944395E-2 0
3.478754697669928E-4 0
5.687134757675227E-4 0
-1.8334148641429206E-3 0
4.014299168600151E-3 0
6.248517144523612E-3 0
1.1790323262333586E-2 0
-9.739030353262365E-3 0
6.592111166414354E-3 0
-2.1476343532125346E-2 0
-1.9944908647758695E-2 0
1.0159813515543228E-2 0
1.0155425363056624E-2 0
-2.121936579016617E-2 0
-2.2426841098264885E-2 0
5.1831875459248285E-3 0
-9.85639113849081E-3 0
1.3905398067419172E-2 0
6.178512728205029E-3 0
2.5390204832226653E-3 0
5.754231795265143E-3 0
3.1181153023090167E-3 0
1.2512333198293278E-2 0
-2.847597711558372E-2 0
6.150807909018002E-1 0
-3.2528872152791856E-2 0
1.62237977435477E-2 0
-5.400852541034207E-3 0
7.796949480886913E-3 0
-2.2135215704437404E-3 0
5.178101382290797E-3 0
5.3994588088807525E-3 0
-9.187042995047497E-3 0
7.565475375228911E-3 0
-5.957229262509948E-3 0
-2.0634473359778054E-3 0
-8.808108230100005E-3 0
6.1003042987401055E-3 0
5.633237544824873E-3 0
-9.052994472755326E-3 0
-3.1143633045115334E-3 0
-6.453320560380042E-3 0
7.7119299516889865E-3 0
-1.0281155338892857E-2 0
5.8973820432637E-3 0
3.8966487089511126E-3 0
-1.399467131892477E-3 0
1.036659021939201E-3 0
2.5859380174393093E-5 0
-1.1773202757372734E-2 0
4.271004650090765E-3 0
-1.2436877805670965E-2 0
9.470349825310866E-4 0
2.167848639448065E-4 0
-1.7630660533759107E-3 0
-9.239358092217545E-4 0
4.132646104614871E-3 0
1.1898188179502752E-2 0
-1.006952298586594E-2 0
6.962992387860491E-3 0
-2.173856325102584E-2 0
-1.9873894508736733E-2 0
1.0294563394810032E-2 0
9.890044825963038E-3 0
-2.105651053301696E-2 0
-2.2506119802602812E-2 0
5.8265472310840005E-3 0
-9.990748216839896E-3 0
1.473706912456965E-2 0
6.427117686629695E-3 0
2.1874415301280934E-3 0
6.1507339458965965E-3 0
4.0338263275535954E-4 0
1.3763823160332988E-2 0
-3.252887215279183E-2 0
6.185468849660242E-1 0
-3.7801711116214304E-2 0
1.986410487434819E-2 0
-7.3377691525120066E-3 0
5.952371295603742E-3 0
-2.659700076420311E-3 0
3.753938511730049E-3 0
5.664460581976059E-3 0
-9.561080784798628E-3 0
8.019415026486126E-3 0
-6.234377142213077E-3 0
-2.0313716996053425E-3 0
-8.893657603148352E-3 0
5.868129415277087E-3 0
5.52985215945256E-3 0
-9.627418037275917E-3 0
-2.3581137240078444E-3 0
-6.805080631051885E-3 0
7.5571573922854915E-3 0
-9.875023172420333E-3 0
6.357019325272119E-3 0
3.6152664987607404E-3 0
-1.5798959043464655E-3 0
8.426265308668424E-4 0
3.6279584114216917E-4 0
-1.243646589307228E-2 0
5.143135544762911E-3 0
-1.3287283941018878E-2 0
1.4784089062259025E-3 0
3.7530236757864693E-4 0
3.195699263062892E-3 0
-5.162073440109882E-4 0
3.796025667545934E-3 0
1.2191623424712313E-2 0
-1.0585671513343291E-2 0
7.433468890194096E-3 0
-2.1938245645252357E-2 0
-2.0074983682263188E-2 0
1.0572754948328975E-2 0
9.45627515497604E-3 0
-2.1783513534084028E-2 0
-2.2461521390325433E-2 0
7.349504626101858E-3 0
-1.073160367218158E-2 0
1.48764693855107E-2 0
7.227493696977008E-3 0
2.2216641378816344E-4 0
6.746802861260767E-3 0
-2.5453043826184876E-3 0
1.6223797743547666E-2 0
-3.7801711116214304E-2 0
6.24399212012183E-1 0
-4.456058267607423E-2 0
2.2454628073550094E-2 0
-5.045097624372457E-3 0
1.486504590664866E-3 0
-2.0476735725965503E-3 0
3.6113611798810263E-3 0
6.055908227911012E-3 0
-1.0118760741023665E-2 0
8.434457116463616E-3 0
-6.4044382426473E-3 0
-2.1242557160265495E-3 0
-8.964033452989262E-3 0
5.865749801731067E-3 0
5.864870151327793E-3 0
-9.98899572976551E-3 0
-2.233822830225189E-3 0
-7.319935966056182E-3 0
7.819345203362336E-3 0
-1.007027522161416E-2 0
6.1862366418224575E-3 0
3.51227277220958E-3 0
-1.8377670067031436E-3 0
5.717715841374524E-4 0
9.417173518223626E-4 0
-1.3291376511391026E-2 0
6.236028910409126E-3 0
-1.3874702719702547E-2 0
1.0901933574288562E-3 0
4.6411581700714236E-4 0
1.7128880553591006E-3 0
-4.385426723996904E-4 0
3.4932203683754708E-3 0
1.2734398471983354E-2 0
-1.126224756547269E-2 0
7.807820965141118E-3 0
-2.1943758387125034E-2 0
-2.056805298116509E-2 0
1.1191612790457694E-2 0
9.547655139512301E-3 0
-2.141602845527405E-2 0
-2.3342440601069173E-2 0
8.34110313476967E-3 0
-1.0465748500421286E-2 0
1.3807798535162681E-2 0
6.574255446557245E-3 0
-1.7432974311029524E-3 0
7.6579087452930935E-3 0
-5.400852541034223E-3 0
1.986410487434816E-2 0
-4.45605826760742E-2 0
6.323096472559308E-1 0
-5.0009319383811444E-2 0
1.898050350896623E-2 0
-1.9229652136235447E-4 0
1.3847707875811273E-3 0
-1.9938127101200172E-3 0
3.380326207489982E-3 0
6.509817092912453E-3 0
-1.0379862569518854E-2 0
8.203163109089308E-3 0
-6.10737245248323E-3 0
-2.371633879445557E-3 0
-8.935255730313197E-3 0
5.91985112994736E-3 0
6.757064056313407E-3 0
-1.0744531486391743E-2 0
-2.508765291230455E-3 0
-7.041728405045573E-3 0
7.890933780543698E-3 0
-1.0074675660397657E-2 0
5.7174653910422E-3 0
3.857230930703299E-3 0
-1.8413740190567872E-3 0
2.070842261328589E-4 0
1.470866240838105E-3 0
-1.3878071584433155E-2 0
6.1712285790002045E-3 0
-1.3238048585093112E-2 0
1.1471388889761187E-2 0
1.1031043578191779E-3 0
1.512551220700664E-3 0
-3.731485966745261E-4 0
3.202880645048281E-3 0
1.3328319389289496E-2 0
-1.1343603162587547E-2 0
7.4619136292177176E-3 0
-2.149978423658507E-2 0
-2.1774693135297035E-2 0
1.1346151670314292E-2 0
1.1066660981947507E-2 0
-2.23654302814209E-2 0
-2.4681360354395655E-2 0
8.366336519285448E-3 0
-9.79698945964926E-3 0
1.3048943645156868E-2 0
7.148524723864164E-3 0
-2.8909047887124575E-3 0
7.796949480886914E-3 0
-7.33776915251203E-3 0
2.2454628073550087E-2 0
-5.000931938381145E-2 0
6.342577613090462E-1 0
-4.233958745644393E-2 0
-1.585760862675752E-2 0
-5.795092615774683E-4 0
1.3682237948045186E-3 0
-1.9976087422801103E-3 0
3.5767064903484474E-3 0
6.233041771722471E-3 0
-9.866888872391837E-3 0
7.5723050616603735E-3 0
-5.78929690059966E-3 0
-2.7182820664538175E-3 0
-8.702635329938141E-3 0
5.871249232719171E-3 0
6.929487680029656E-3 0
-1.0133670395602513E-2 0
-3.0577559935127487E-3 0
-6.744422037387583E-3 0
7.707902571929219E-3 0
-9.588708597080407E-3 0
5.456622387883268E-3 0
4.005437378055446E-3 0
-1.770556047327702E-3 0
3.6930311861043503E-4 0
1.0872026357047395E-3 0
-1.3239070257578896E-2 0
4.52578655361502E-3 0
-3.917058199180604E-2 0
7.081526430798674E-3 0
1.3508721844502406E-3 0
1.7089817428267227E-3 0
-3.3296793728362754E-4 0
3.760375630754229E-3 0
1.3133310923914836E-2 0
-1.0478960314927297E-2 0
6.75282036831296E-3 0
-2.164316491766165E-2 0
-2.22935098839761E-2 0
1.0550144649128861E-2 0
1.1910301606691279E-2 0
-2.1776108764444843E-2 0
-2.2665821595584393E-2 0
8.226294690062325E-3 0
-8.877478858985275E-3 0
1.2542589323269236E-2 0
6.5218739130130455E-3 0
-2.2135215704437647E-3 0
5.9523712956037565E-3 0
-5.0450976243724445E-3 0
1.8980503508966205E-2 0
-4.2339587456443915E-2 0
6.272235563502394E-1 0
