%%MatrixMarket matrix array complex general
%
50 50
4.74592015027356E-1 0
3.8040609492990163E-3 0
2.6961857957805003E-3 0
-3.984031116661113E-3 0
2.0065455112156356E-3 0
-2.2182737813563613E-3 0
-2.3763167343816075E-3 0
5.482567551577025E-3 0
3.857662973320452E-4 0
-1.334512722834898E-4 0
-1.94866652574392E-3 0
3.3144548559201938E-3 0
3.5415511726146548E-3 0
3.5415511726144574E-3 0
3.314542942249201E-3 0
-1.9490664969886535E-3 0
-1.3350158651802868E-4 0
3.909242332663469E-4 0
5.459107716922338E-3 0
-2.3081849464735723E-3 0
-2.374598634491924E-3 0
2.2963147695840964E-3 0
-4.411527734591879E-3 0
3.118606555023787E-3 0
3.8223764665910945E-3 0
-1.4781694509057013E-2 0
7.488100552069289E-3 0
-2.8209011346501675E-3 0
-4.52048821274762E-3 0
-5.104318876844676E-3 0
-1.777036158899031E-3 0
-1.066802853428315E-2 0
1.2640993777431514E-4 0
3.6001276188075814E-3 0
1.4832121813298396E-2 0
-9.905659335702213E-3 0
4.253535220982992E-3 0
6.536979796217524E-3 0
6.536979796217916E-3 0
4.259874416263145E-3 0
-9.934443550678539E-3 0
1.4903124834235918E-2 0
3.4686058403052074E-3 0
3.3273538200495774E-4 0
-1.0957761837582557E-2 0
-1.4009899997260696E-3 0
-5.556846608432326E-3 0
-3.9688542639010815E-3 0
-3.3838695623191702E-3 0
8.161088379594984E-3 0
3.804060949299019E-3 0
4.865339114934329E-1 0
2.7751841606156176E-3 0
1.9501511590883697E-3 0
-2.9305006846383707E-3 0
1.4358818684988587E-3 0
-1.6351733881445826E-3 0
-1.764762849934304E-3 0
3.928562566409761E-3 0
2.022732014122686E-4 0
-2.8162484617206206E-4 0
-1.531164274762649E-3 0
2.583483982904425E-3 0
2.4542703174317408E-3 0
2.409823798423139E-3 0
2.526431073024361E-3 0
-1.4121239834621968E-3 0
-5.4053058423590495E-5 0
2.8463189520307636E-4 0
4.02135824318911E-3 0
-1.667504466454355E-3 0
-1.7073925604774076E-3 0
1.775595857285921E-3 0
-3.2921474877284757E-3 0
2.2879273138898654E-3 0
7.48810055206854E-3 0
-7.801430498526063E-3 0
5.456240502053211E-3 0
-2.107207070407575E-3 0
-3.3319323052870696E-3 0
-3.740540643301754E-3 0
-1.374086208581936E-3 0
-7.907618688238208E-3 0
-3.023261739813878E-5 0
2.5905949128383885E-3 0
1.082315527343105E-2 0
-7.172377147004861E-3 0
3.3212985881186765E-3 0
4.6688287630204045E-3 0
4.33554930626594E-3 0
2.9713714551534475E-3 0
-7.375275377763977E-3 0
1.0943572298644583E-2 0
2.4900125617422003E-3 0
3.9546639393193793E-4 0
-8.083690392731687E-3 0
-8.48708486059446E-4 0
-4.004440531510683E-3 0
-3.0091238525728793E-3 0
-2.2500894010325577E-3 0
2.6961857957804964E-3 0
2.7751841606156393E-3 0
4.8651631674679063E-1 0
2.754270228710688E-3 0
1.9254740500035839E-3 0
-2.961681771862222E-3 0
1.3938205558541097E-3 0
-1.6911661529321323E-3 0
-1.8355634711453035E-3 0
3.86244530187477E-3 0
1.3246144831297895E-4 0
-1.7175165690189008E-4 0
-1.4684475809038542E-3 0
2.535005893113469E-3 0
2.303235822207443E-3 0
2.2726911802857476E-3 0
2.379508118660094E-3 0
-1.4583641348150896E-3 0
-8.875259573958243E-6 0
2.3953968854160842E-4 0
4.106816730331315E-3 0
-1.7451694753330429E-3 0
-1.6269311203202966E-3 0
1.6645769099748024E-3 0
-3.164090903993621E-3 0
-2.820901134648922E-3 0
5.455717612693632E-3 0
-7.84072683903395E-3 0
5.404661150645458E-3 0
-2.1734122040739105E-3 0
-3.4198299470923847E-3 0
-3.859692859720931E-3 0
-1.530193197619912E-3 0
-8.09097032163323E-3 0
-2.2215901958127138E-4 0
2.492819477253284E-3 0
1.0838770093572168E-2 0
-7.495132971478309E-3 0
3.3704970642496096E-3 0
4.342541105647734E-3 0
4.249787500380107E-3 0
3.171324669064688E-3 0
-7.280266442149336E-3 0
1.1153279768502854E-2 0
2.3925270286449126E-3 0
6.147000350043456E-4 0
-8.275288596538867E-3 0
-6.026922148838378E-4 0
-4.1209700022760126E-3 0
-3.2298595474980194E-3 0
-3.984031116661122E-3 0
1.9501511590883445E-3 0
2.7542702287107063E-3 0
4.86493895748822E-1 0
2.728831488469604E-3 0
1.8920489455260935E-3 0
-3.010818012369885E-3 0
1.3227873964801182E-3 0
-1.7803541812853585E-3 0
-1.9063910722492854E-3 0
3.90862753483251E-3 0
3.358674617183879E-4 0
-2.3145357188605526E-5 0
-1.513117317285815E-3 0
2.2700981948218226E-3 0
2.1723433429956126E-3 0
2.1910922013931313E-3 0
2.4016075823739915E-3 0
-1.504708104883603E-3 0
4.395648525193523E-5 0
1.4596750300717491E-4 0
4.238919109175528E-3 0
-1.8886576671034744E-3 0
-1.4650322331482123E-3 0
1.5390051577168992E-3 0
-4.52048821274875E-3 0
-2.108929760357914E-3 0
5.402801435009885E-3 0
-7.905556585807282E-3 0
5.324269685817686E-3 0
-2.27957363621593E-3 0
-3.568027394325204E-3 0
-4.066191203717436E-3 0
-1.8181474955980342E-3 0
-8.452917322162622E-3 0
-5.837501613424167E-4 0
2.3290179510538616E-3 0
1.156098627932656E-2 0
-7.288433530417708E-3 0
3.4555367442742147E-3 0
4.791548062519856E-3 0
4.516880209187261E-3 0
3.3717889534410858E-3 0
-7.363928263546258E-3 0
1.1302057150065332E-2 0
2.2076546411555396E-3 0
8.499389282373128E-4 0
-8.51408192460714E-3 0
-4.7375342797822587E-4 0
-4.153900179074224E-3 0
2.006545511215641E-3 0
-2.9305006846383594E-3 0
1.9254740500035691E-3 0
2.7288314884695987E-3 0
4.864655054726079E-1 0
2.691155165808136E-3 0
1.835106311447464E-3 0
-3.0953372966740656E-3 0
1.2083621886221343E-3 0
-1.8947899984625377E-3 0
-1.9325282450637022E-3 0
3.967060972384444E-3 0
3.8208819324967065E-4 0
-6.233941670881768E-5 0
-1.399338143877164E-3 0
2.432284375288226E-3 0
2.3158147779775823E-3 0
2.186343530210785E-3 0
2.4017387632378605E-3 0
-1.5735197031112175E-3 0
9.997377518929539E-5 0
2.8401625791664603E-5 0
4.407488164512502E-3 0
-2.068588247389292E-3 0
-1.4948227702320006E-3 0
-5.104318876844035E-3 0
-3.3350914909275947E-3 0
-2.177589181263454E-3 0
5.321752892424792E-3 0
-8.002577867173817E-3 0
5.2006360759881114E-3 0
-2.447274783302575E-3 0
-3.795290568342605E-3 0
-4.371037654846216E-3 0
-2.153297604343778E-3 0
-8.693268392682299E-3 0
-4.149380818485065E-4 0
2.8573669626911005E-3 0
1.1777918012495588E-2 0
-6.634313181874331E-3 0
3.6340235881864944E-3 0
4.795723914625265E-3 0
4.347663016947955E-3 0
3.3762741286867404E-3 0
-7.552808117435365E-3 0
1.145264804982851E-2 0
2.0068391885012414E-3 0
1.0727706485133299E-3 0
-8.590597448140998E-3 0
-8.977915975899198E-4 0
-2.2182737813563618E-3 0
1.4358818684988607E-3 0
-2.9616817718622047E-3 0
1.8920489455260892E-3 0
2.6911551658081456E-3 0
4.864170689469308E-1 0
2.6212052310589104E-3 0
1.7357438328253207E-3 0
-3.2271929820089596E-3 0
1.0798229383280212E-3 0
-1.9976902143903985E-3 0
-1.874246645095482E-3 0
4.30430826646767E-3 0
3.7995207883354367E-4 0
9.977688358539119E-5 0
-1.134618052853905E-3 0
2.510178568202168E-3 0
2.2948480646238357E-3 0
2.1214318874478986E-3 0
2.382797312812344E-3 0
-1.6172461736979325E-3 0
1.4274844628182342E-4 0
-5.366331636444819E-5 0
4.458567884185684E-3 0
-2.011425739843808E-3 0
-1.7770361588992296E-3 0
-3.744474296650261E-3 0
-3.4250592033744655E-3 0
-2.2827539707108023E-3 0
5.200623686678279E-3 0
-8.146208420531207E-3 0
5.022355857072364E-3 0
-2.6679336527799346E-3 0
-4.063328838124556E-3 0
-4.628654079516525E-3 0
-2.4220014943188498E-3 0
-8.643666283532745E-3 0
-2.0175082178507472E-4 0
2.858210068602819E-3 0
1.136727805913164E-2 0
-6.485289167395872E-3 0
3.389011068356099E-3 0
4.631466261227794E-3 0
4.110095186775046E-3 0
3.4008699271354265E-3 0
-7.744894280006884E-3 0
1.1642494972689954E-2 0
1.852339354766738E-3 0
9.535789578785274E-4 0
-8.494559537109508E-3 0
-2.3763167343816083E-3 0
-1.6351733881445898E-3 0
1.3938205558540976E-3 0
-3.0108180123698852E-3 0
1.8351063114474678E-3 0
2.6212052310589117E-3 0
4.863234193138023E-1 0
2.496673881433405E-3 0
1.5833371683937698E-3 0
-3.3565301481659053E-3 0
1.03839305432669E-3 0
-1.781398321447909E-3 0
-1.7888315663521716E-3 0
4.202303628832495E-3 0
4.2061301531824225E-4 0
2.010659877174469E-4 0
-1.178474456277072E-3 0
2.4621391819981808E-3 0
2.2421261411209583E-3 0
2.0971490520333286E-3 0
2.383692189552428E-3 0
-1.5937581686277698E-3 0
1.2853007959062748E-4 0
9.710580497613736E-5 0
4.3338694952160094E-3 0
-1.0668028534283221E-2 0
-1.375640108022994E-3 0
-3.8613811952503425E-3 0
-3.567240710010014E-3 0
-2.442128397432361E-3 0
5.0296677456837E-3 0
-8.331858390373882E-3 0
4.819401929063561E-3 0
-2.903889808903607E-3 0
-4.311741109115253E-3 0
-5.0216896523925065E-3 0
-2.4833512294758007E-3 0
-8.945165478139026E-3 0
-3.078924358487329E-4 0
2.946824618032122E-3 0
1.148100920609759E-2 0
-6.7540973861479605E-3 0
3.1692491249742834E-3 0
4.49930698261011E-3 0
3.973064678009795E-3 0
3.5322699016238188E-3 0
-7.947919026698728E-3 0
1.1913331095330196E-2 0
1.8651794682976288E-3 0
4.935363240127248E-4 0
5.482567551577028E-3 0
-1.7647628499342987E-3 0
-1.6911661529321266E-3 0
1.322787396480121E-3 0
-3.095337296674069E-3 0
1.7357438328253292E-3 0
2.496673881433408E-3 0
4.861619003476891E-1 0
2.300399919924223E-3 0
1.4087720602822412E-3 0
-3.493995518969759E-3 0
1.0784735490841546E-3 0
-1.8640893362207819E-3 0
-1.9331818986197376E-3 0
4.145848974074876E-3 0
6.698551757109127E-4 0
2.5776788319538217E-4 0
-1.1819626315625333E-3 0
2.4478130289341798E-3 0
2.238261780552554E-3 0
2.1178090655473254E-3 0
2.4316327054791946E-3 0
-1.5719080151625037E-3 0
6.514304907066794E-5 0
2.672268076628089E-4 0
1.2640993777441088E-4 0
-7.899358821000055E-3 0
-1.5194640617685706E-3 0
-4.0560749843167295E-3 0
-3.781396326154959E-3 0
-2.645601517691733E-3 0
4.841869340723375E-3 0
-8.506395569983198E-3 0
4.644909617241655E-3 0
-3.0565978753121165E-3 0
-4.494063030929085E-3 0
-4.882358557978225E-3 0
-2.4246294409724627E-3 0
-9.029988127770975E-3 0
-7.563317220466928E-5 0
2.9380005473913793E-3 0
1.1126436556164783E-2 0
-6.994365937736659E-3 0
3.0676013093909023E-3 0
4.467766732893349E-3 0
3.963971876701711E-3 0
3.7885689679638106E-3 0
-8.273655285868771E-3 0
1.2240639736201403E-2 0
2.1675407301734602E-3 0
3.857662973320392E-4 0
3.928562566409761E-3 0
-1.8355634711453089E-3 0
-1.7803541812853611E-3 0
1.2083621886221346E-3 0
-3.2271929820089614E-3 0
1.5833371683937768E-3 0
2.3003999199242425E-3 0
4.85914171058317E-1 0
2.0527312575367614E-3 0
1.2023895187639258E-3 0
-3.503701801636822E-3 0
1.1717217818202734E-3 0
-1.8519596550029176E-3 0
-1.540647475249535E-3 0
4.446704574055681E-3 0
7.66484760386781E-4 0
3.171689700394477E-4 0
-1.1986688383090823E-3 0
2.485778159214359E-3 0
2.280293255584136E-3 0
2.163909406990884E-3 0
2.5049765255056046E-3 0
-1.6189510306932845E-3 0
2.543491003522892E-5 0
3.6001276188076243E-3 0
6.999427733300848E-6 0
-8.04811703773049E-3 0
-1.798125422440389E-3 0
-4.361427838907374E-3 0
-4.026415507266467E-3 0
-2.8378503849108808E-3 0
4.694121526494725E-3 0
-8.568076183387093E-3 0
4.728917966263212E-3 0
-2.7985664021826714E-3 0
-4.118131290376568E-3 0
-4.975105829023808E-3 0
-2.4644255260080415E-3 0
-8.566905341209033E-3 0
-2.604453104843117E-4 0
2.5651197058075095E-3 0
1.1004657469743167E-2 0
-7.135885957867296E-3 0
3.243763407825342E-3 0
4.5031645356034935E-3 0
4.236655925509607E-3 0
3.9026196526524438E-3 0
-8.225928861133564E-3 0
1.1936281150451457E-2 0
-1.3345127228348982E-4 0
2.0227320141226636E-4 0
3.862445301874773E-3 0
-1.9063910722492844E-3 0
-1.894789998462536E-3 0
1.0798229383280203E-3 0
-3.3565301481659165E-3 0
1.4087720602822295E-3 0
2.052731257536757E-3 0
4.8562128487471845E-1 0
1.9146981145373742E-3 0
1.2647428632636788E-3 0
-3.6145337477691414E-3 0
1.3193730972405043E-3 0
-1.5035769848969894E-3 0
-1.302908716339223E-3 0
4.596859042237888E-3 0
7.458282010900503E-4 0
2.9982285364694305E-4 0
-1.2383913046682253E-3 0
2.5780370113263444E-3 0
2.262030018545679E-3 0
2.1790267542373836E-3 0
2.4672009095561788E-3 0
-1.5442477577124883E-3 0
1.4832121813298255E-2 0
2.669760323521472E-3 0
-1.3509949695704907E-4 0
-8.436660308918844E-3 0
-2.183335778320371E-3 0
-4.595282543049683E-3 0
-4.195489559796655E-3 0
-2.960642114945026E-3 0
4.7394218516061334E-3 0
-8.329579226818047E-3 0
5.239839565575578E-3 0
-2.392270636130177E-3 0
-4.4088218854303534E-3 0
-5.229082707170943E-3 0
-2.6510993061648197E-3 0
-8.803509317341408E-3 0
-2.496577579617372E-4 0
2.4672002393397964E-3 0
1.1222373018893452E-2 0
-7.157156703899635E-3 0
3.6959671330633547E-3 0
4.510501849158929E-3 0
4.638626144750519E-3 0
3.174065871535631E-3 0
-7.920596484838149E-3 0
-1.9486665257439268E-3 0
-2.8162484617206467E-4 0
1.3246144831297879E-4 0
3.908627534832516E-3 0
-1.9325282450636983E-3 0
-1.997690214390391E-3 0
1.0383930543267094E-3 0
-3.493995518969748E-3 0
1.202389518763924E-3 0
1.914698114537375E-3 0
4.8519410640756844E-1 0
1.5868729495812593E-3 0
1.393769648473053E-3 0
-3.5593182176842193E-3 0
1.7525150347051173E-3 0
-8.923748860981804E-4 0
-1.3179469320854394E-3 0
4.483367715890529E-3 0
6.069862318662724E-4 0
2.9299615636441524E-4 0
-1.2556521675808926E-3 0
2.5735584517714597E-3 0
2.0353217470986335E-3 0
2.368742789265906E-3 0
2.6270930254762314E-3 0
-9.905659335702068E-3 0
1.0931393274711942E-2 0
2.640478034432726E-3 0
-5.890172144050827E-4 0
-8.844450489487187E-3 0
-2.443887502941103E-3 0
-4.815701744166415E-3 0
-4.397563330056665E-3 0
-2.891619980561805E-3 0
5.103236438067171E-3 0
-8.207807029120254E-3 0
5.313315286105144E-3 0
-2.617032423595216E-3 0
-5.113737540710621E-3 0
-5.248098604834131E-3 0
-2.249069722090261E-3 0
-8.722829997616074E-3 0
-2.5487641850321182E-5 0
2.588170906234802E-3 0
1.1654052210442422E-2 0
-6.961959234664728E-3 0
4.3555718874040295E-3 0
4.246250536478663E-3 0
4.504904687644675E-3 0
2.851824435549702E-3 0
3.314454855920193E-3 0
-1.5311642747626527E-3 0
-1.7175165690189222E-4 0
3.3586746171838385E-4 0
3.967060972384448E-3 0
-1.874246645095484E-3 0
-1.781398321447928E-3 0
1.0784735490841405E-3 0
-3.5037018016368156E-3 0
1.2647428632636818E-3 0
1.5868729495812442E-3 0
4.852187875120164E-1 0
1.8423166722522305E-3 0
1.1802467753848842E-3 0
-2.992266435144635E-3 0
1.7452304808576271E-3 0
-1.4821273554011286E-3 0
-1.5831430011977606E-3 0
4.216104320375129E-3 0
3.159323682920358E-4 0
2.4470951283924006E-4 0
-1.582940974438877E-3 0
2.468360144419642E-3 0
2.1492878137745683E-3 0
2.5996615994111163E-3 0
4.253535220982846E-3 0
-7.176135286570178E-3 0
1.089428277442495E-2 0
2.297227907599007E-3 0
-5.654738911703753E-4 0
-8.721968029740278E-3 0
-2.3353677076673653E-3 0
-4.925122263121607E-3 0
-4.34321866708844E-3 0
-2.594468545417908E-3 0
4.684995745223696E-3 0
-8.223176773699326E-3 0
5.362330017999639E-3 0
-3.8905728150766894E-3 0
-4.685284321504247E-3 0
-4.64715632786223E-3 0
-2.3679133122816763E-3 0
-8.505838893373582E-3 0
2.472396795098513E-4 0
2.366531306823038E-3 0
1.2059917722744501E-2 0
-7.266150384708804E-3 0
4.314318862447164E-3 0
3.668000773338019E-3 0
4.807499210968888E-3 0
3.541551172614655E-3 0
2.583483982904429E-3 0
-1.468447580903847E-3 0
-2.3145357188605526E-5 0
3.8208819324966805E-4 0
4.304308266467666E-3 0
-1.7888315663521675E-3 0
-1.8640893362207801E-3 0
1.1717217818202732E-3 0
-3.6145337477691435E-3 0
1.3937696484730509E-3 0
1.8423166722522305E-3 0
4.8348207430270074E-1 0
1.7281225407616313E-3 0
1.1784252786798488E-3 0
-3.5510473961655113E-3 0
1.2985874801873076E-3 0
-1.8115835225474882E-3 0
-2.001931336078884E-3 0
4.310292335672594E-3 0
2.1930850610036212E-4 0
1.604336181469906E-4 0
-1.796568937967066E-3 0
2.8055277447088514E-3 0
2.466356812232542E-3 0
6.536979796217708E-3 0
3.257607600450738E-3 0
-7.53269952625133E-3 0
1.153768659699771E-2 0
2.8236530299049394E-3 0
-2.487636161402946E-4 0
-8.930523706224344E-3 0
-2.510870983468997E-3 0
-5.116903650798999E-3 0
-4.495986108152387E-3 0
-3.187764560385637E-3 0
4.864948400045348E-3 0
-9.626902484345477E-3 0
4.71221835180126E-3 0
-3.4005620138300397E-3 0
-4.509536933037336E-3 0
-5.226190973866883E-3 0
-2.158151434798381E-3 0
-9.227206257110107E-3 0
1.338380765047269E-4 0
2.20254268971593E-3 0
1.281599491403439E-2 0
-8.509075880664187E-3 0
4.5099525371043395E-3 0
4.525931922560896E-3 0
3.5415511726144583E-3 0
2.4542703174317403E-3 0
2.5350058931134637E-3 0
-1.5131173172858198E-3 0
-6.233941670881868E-5 0
3.7995207883354275E-4 0
4.2023036288325E-3 0
-1.933181898619731E-3 0
-1.8519596550029191E-3 0
1.3193730972405025E-3 0
-3.559318217684219E-3 0
1.1802467753848846E-3 0
1.7281225407616294E-3 0
4.8348207430270074E-1 0
1.8433852804304969E-3 0
1.388917447812205E-3 0
-3.6019644209436793E-3 0
1.145507364150372E-3 0
-1.8146334867463582E-3 0
-1.8754500838128667E-3 0
4.445603368685538E-3 0
1.7410972250385114E-4 0
2.6954021920713733E-4 0
-1.7834718177348345E-3 0
2.874613022897026E-3 0
6.536979796217798E-3 0
4.732519750688275E-3 0
3.408063619022726E-3 0
-7.265133848088925E-3 0
1.1811631945281823E-2 0
2.9052228629580135E-3 0
-3.2253420776341067E-4 0
-8.943746585274451E-3 0
-2.322627704232848E-3 0
-5.141918484448916E-3 0
-4.543005403920221E-3 0
-3.393191197122416E-3 0
4.712218351801262E-3 0
-9.626902484345477E-3 0
4.870973005054243E-3 0
-3.215120323704596E-3 0
-4.4269336131406095E-3 0
-5.252495848801396E-3 0
-2.2741158016307E-3 0
-9.320508420060923E-3 0
3.816790865500186E-4 0
1.8501295505019332E-3 0
1.2981872129714404E-2 0
-9.111072684692623E-3 0
4.191047111672925E-3 0
3.314542942249199E-3 0
2.4098237984231372E-3 0
2.303235822207441E-3 0
2.2700981948218235E-3 0
-1.3993381438771662E-3 0
9.977688358538939E-5 0
4.206130153182347E-4 0
4.145848974074868E-3 0
-1.540647475249535E-3 0
-1.5035769848969881E-3 0
1.7525150347051518E-3 0
-2.992266435144603E-3 0
1.1784252786798453E-3 0
1.843385280430499E-3 0
4.8521828965756253E-1 0
1.5880317873164084E-3 0
1.260722960233818E-3 0
-3.492348623251504E-3 0
1.0510232697324416E-3 0
-1.7235160864464312E-3 0
-1.981176887328043E-3 0
4.1349215197844956E-3 0
1.2041857532802228E-4 0
2.1162808372480115E-5 0
-1.694995878786139E-3 0
4.2598744162632455E-3 0
4.339309070077682E-3 0
4.287031123201318E-3 0
3.4873269387427344E-3 0
-6.483780326734251E-3 0
1.1445578996700081E-2 0
2.7988446022924446E-3 0
-3.2868245435757267E-5 0
-8.341819246969643E-3 0
-2.4489034928269968E-3 0
-4.619789486168724E-3 0
-4.685290050596159E-3 0
-3.897940940596943E-3 0
5.368351931821163E-3 0
-8.232294670685722E-3 0
4.709878095155736E-3 0
-2.651390997127641E-3 0
-4.235795813858717E-3 0
-5.106831681872209E-3 0
-2.0458605605184746E-3 0
-9.17325509463237E-3 0
1.1041362973416347E-4 0
1.2457133468528852E-3 0
1.2138740228809442E-2 0
-8.192711728843408E-3 0
-1.9490664969886594E-3 0
2.5264310730243604E-3 0
2.2726911802857432E-3 0
2.1723433429956117E-3 0
2.432284375288232E-3 0
-1.1346180528538986E-3 0
2.0106598771745177E-4 0
6.698551757109201E-4 0
4.44670457405568E-3 0
-1.3029087163392236E-3 0
-8.923748860981589E-4 0
1.7452304808576414E-3 0
-3.551047396165511E-3 0
1.3889174478122065E-3 0
1.5880317873164169E-3 0
4.851938472212703E-1 0
1.918115649822815E-3 0
1.1905060460455693E-3 0
-3.46627409233498E-3 0
9.833711183686613E-4 0
-1.8945108824796474E-3 0
-2.111161868454068E-3 0
4.1705003124253735E-3 0
-1.2758229269107144E-4 0
-1.8236441821533898E-4 0
-9.934443550678554E-3 0
2.8631260786997513E-3 0
4.102116690619351E-3 0
4.796814429878336E-3 0
3.785219098966135E-3 0
-6.463399487007837E-3 0
1.1275005377958653E-2 0
2.841495299516468E-3 0
-1.6738590881668856E-4 0
-8.666896672809118E-3 0
-2.249022398211744E-3 0
-5.2754498548087565E-3 0
-5.080281289630462E-3 0
-2.644375967111455E-3 0
5.338161199886196E-3 0
-8.245616634749186E-3 0
5.172184802475164E-3 0
-3.0083829963176555E-3 0
-4.216145952250595E-3 0
-5.081577394024021E-3 0
-2.0715865204068945E-3 0
-9.333243099120923E-3 0
1.3535650120159633E-5 0
2.0624833033047415E-3 0
1.1794465453743106E-2 0
-1.3350158651802686E-4 0
-1.4121239834621975E-3 0
2.379508118660094E-3 0
2.191092201393133E-3 0
2.315814777977575E-3 0
2.5101785682021672E-3 0
-1.1784744562770735E-3 0
2.5776788319537784E-4 0
7.664847603867754E-4 0
4.596859042237879E-3 0
-1.3179469320854344E-3 0
-1.4821273554011182E-3 0
1.2985874801873115E-3 0
-3.6019644209436784E-3 0
1.2607229602338062E-3 0
1.918115649822829E-3 0
4.85608445862817E-1 0
2.083761719238384E-3 0
1.3553700976455367E-3 0
-3.2820272457983633E-3 0
9.80623046367177E-4 0
-1.7486731594240535E-3 0
-2.1667960368719845E-3 0
4.201314874845155E-3 0
4.000906538646768E-5 0
1.4903124834235846E-2 0
-7.4544228733696245E-3 0
3.084294871481646E-3 0
4.500624876740594E-3 0
4.825729615083503E-3 0
3.3556306754884907E-3 0
-6.870310337514777E-3 0
1.1030494214876133E-2 0
2.554601525086696E-3 0
-2.49680929228462E-4 0
-8.859549946874743E-3 0
-2.570182166362079E-3 0
-5.3133315934314985E-3 0
-4.33979299357599E-3 0
-2.44912423903899E-3 0
5.308914268947661E-3 0
-8.437782761228125E-3 0
4.906875570870793E-3 0
-3.203228569170228E-3 0
-3.8603342309344265E-3 0
-5.0423376924859055E-3 0
-1.6116774977918311E-3 0
-9.09800784237564E-3 0
4.400292227179451E-4 0
2.5463731413877594E-3 0
3.909242332663456E-4 0
-5.405305842359365E-5 0
-1.458364134815093E-3 0
2.401607582373986E-3 0
2.186343530210791E-3 0
2.2948480646238336E-3 0
2.4621391819981764E-3 0
-1.1819626315625416E-3 0
3.1716897003944146E-4 0
7.458282010900387E-4 0
4.48336771589053E-3 0
-1.583143001197757E-3 0
-1.811583522547489E-3 0
1.1455073641503724E-3 0
-3.492348623251515E-3 0
1.1905060460455862E-3 0
2.083761719238358E-3 0
4.8584795954787957E-1 0
2.4066234184135318E-3 0
1.4531524247754428E-3 0
-3.1071721227824587E-3 0
1.1245937927036307E-3 0
-1.6880626384505853E-3 0
-1.973207337084917E-3 0
4.213696419576678E-3 0
3.468605840305311E-3 0
1.0906308424171333E-2 0
-7.323172350527308E-3 0
3.3517638189093273E-3 0
4.338110348197825E-3 0
4.5945683543211204E-3 0
3.1031414879104345E-3 0
-7.043601414696511E-3 0
1.100468361200025E-2 0
2.4777455574778564E-3 0
-1.1832440504832126E-4 0
-8.730761763321236E-3 0
-2.299961034898211E-3 0
-5.110686248701568E-3 0
-4.010874226101714E-3 0
-2.9155404111106836E-3 0
4.896315959643197E-3 0
-8.81134734061117E-3 0
5.028769158685701E-3 0
-3.2787044091685496E-3 0
-3.4668134395593117E-3 0
-5.052165522626329E-3 0
-9.298179499625385E-4 0
-8.94441169923677E-3 0
4.81693783284404E-4 0
5.45910771692234E-3 0
2.8463189520307457E-4 0
-8.875259573964225E-6 0
-1.504708104883603E-3 0
2.40173876323786E-3 0
2.121431887447905E-3 0
2.2421261411209644E-3 0
2.447813028934181E-3 0
-1.1986688383090912E-3 0
2.9982285364693574E-4 0
6.069862318662718E-4 0
4.216104320375134E-3 0
-2.0019313360788884E-3 0
-1.814633486746358E-3 0
1.0510232697324476E-3 0
-3.466274092334986E-3 0
1.3553700976455497E-3 0
2.4066234184135483E-3 0
4.859831916602603E-1 0
2.7362244008663178E-3 0
1.4982919360341774E-3 0
-2.951465884453609E-3 0
1.3418039797555114E-3 0
-1.828058650785158E-3 0
-1.7564272200131996E-3 0
3.327353820048575E-4 0
2.4817988555559927E-3 0
1.114262646648024E-2 0
-7.374039780436177E-3 0
3.3622985836765083E-3 0
4.087741630533733E-3 0
4.4769375494780874E-3 0
3.0676344749049527E-3 0
-7.086715068565462E-3 0
1.131826607640815E-2 0
2.684331009988868E-3 0
2.0413430673715225E-4 0
-9.313512250345799E-3 0
-2.1878098083950082E-3 0
-5.0637250883834636E-3 0
-4.312311598877466E-3 0
-3.2991082164536274E-3 0
4.979574711521357E-3 0
-8.94986865816045E-3 0
5.411222002645653E-3 0
-3.3328927830986073E-3 0
-3.0109778194963538E-3 0
-4.890434355717758E-3 0
-7.467908279084721E-4 0
-8.754698309664632E-3 0
-2.3081849464735723E-3 0
4.021358243189111E-3 0
2.3953968854161975E-4 0
4.395648525193737E-5 0
-1.5735197031112207E-3 0
2.3827973128123436E-3 0
2.0971490520333377E-3 0
2.2382617805525645E-3 0
2.4857781592143515E-3 0
-1.2383913046682287E-3 0
2.9299615636441606E-4 0
3.1593236829203527E-4 0
4.310292335672594E-3 0
-1.8754500838128684E-3 0
-1.7235160864464236E-3 0
9.83371118368655E-4 0
-3.2820272457983516E-3 0
1.4531524247754302E-3 0
2.7362244008663395E-3 0
4.859431016026419E-1 0
3.094527006015247E-3 0
1.4007804047644903E-3 0
-2.8080087488809567E-3 0
1.4778374866211235E-3 0
-1.867749524943514E-3 0
-1.0957761837582394E-2 0
3.969629517284266E-4 0
2.39412199163755E-3 0
1.1301263895681904E-2 0
-7.557856840285064E-3 0
3.393582447206394E-3 0
3.972944617817998E-3 0
4.490195932752546E-3 0
3.309863949828939E-3 0
-7.040814850510918E-3 0
1.1860509654339426E-2 0
2.515129165715148E-3 0
1.4871290810270667E-4 0
-9.335383251658896E-3 0
-2.19445491151005E-3 0
-5.288050766151485E-3 0
-3.976637467612105E-3 0
-3.344873190404325E-3 0
5.38889080175642E-3 0
-9.07648017174529E-3 0
5.952088881562411E-3 0
-3.4705693102507124E-3 0
-2.5624228699371145E-3 0
-4.655015356866883E-3 0
-1.0146189332779355E-3 0
-2.3745986344919255E-3 0
-1.6675044664543523E-3 0
4.10681673033131E-3 0
1.4596750300717573E-4 0
9.997377518929122E-5 0
-1.6172461736979316E-3 0
2.383692189552437E-3 0
2.117809065547332E-3 0
2.280293255584133E-3 0
2.578037011326344E-3 0
-1.2556521675808922E-3 0
2.447095128392391E-4 0
2.193085061003593E-4 0
4.44560336868554E-3 0
-1.981176887328038E-3 0
-1.8945108824796545E-3 0
9.806230463671826E-4 0
-3.107172122782465E-3 0
1.4982919360341945E-3 0
3.0945270060152097E-3 0
4.8567443188757387E-1 0
3.5958036964999344E-3 0
1.1352596804372896E-3 0
-2.652496314199399E-3 0
1.5613825094012257E-3 0
-1.4009899997263074E-3 0
-8.079694412875883E-3 0
6.20029914075447E-4 0
2.210844222099364E-3 0
1.1452560876396813E-2 0
-7.744915626202319E-3 0
3.539710374746248E-3 0
3.986335513549937E-3 0
4.539970398378291E-3 0
3.729164109891835E-3 0
-6.9845091016021345E-3 0
1.1980634267004724E-2 0
2.155062745990629E-3 0
4.291590302753339E-4 0
-9.093972451397153E-3 0
-2.0490329641516813E-3 0
-5.0755435668326096E-3 0
-3.5036038128613252E-3 0
-3.3552779176409145E-3 0
5.9446728849513585E-3 0
-9.374850165319977E-3 0
6.68369616680995E-3 0
-3.7885840729461194E-3 0
-2.2705154080983753E-3 0
-4.5500737620611294E-3 0
2.2963147695840994E-3 0
-1.7073925604774096E-3 0
-1.7451694753330444E-3 0
4.2389191091755235E-3 0
2.840162579166607E-5 0
1.4274844628182844E-4 0
-1.5937581686277646E-3 0
2.4316327054791937E-3 0
2.1639094069908875E-3 0
2.2620300185456823E-3 0
2.573558451771464E-3 0
-1.5829409744388776E-3 0
1.6043361814698773E-4 0
1.7410972250385311E-4 0
4.134921519784495E-3 0
-2.1111618684540685E-3 0
-1.7486731594240567E-3 0
1.1245937927036379E-3 0
-2.9514658844536227E-3 0
1.4007804047644888E-3 0
3.595803696499931E-3 0
4.8505816137896357E-1 0
4.310871043054022E-3 0
8.336701025887105E-4 0
-2.851429320859117E-3 0
-5.556846608432128E-3 0
-8.456087050238928E-4 0
-8.271207285914283E-3 0
8.524419974193936E-4 0
2.006922227362559E-3 0
1.1642492114058612E-2 0
-7.942894021491866E-3 0
3.8024591719480636E-3 0
4.246485123176694E-3 0
4.480882636702946E-3 0
4.2054853549138155E-3 0
-7.415240484336347E-3 0
1.278294519697122E-2 0
1.8831792675650936E-3 0
2.5950078505703893E-4 0
-9.183143197505026E-3 0
-1.5820906513294175E-3 0
-5.061937757106169E-3 0
-3.0249490768865907E-3 0
-3.475496935824763E-3 0
6.683599699125362E-3 0
-9.994679674682774E-3 0
7.583699644131755E-3 0
-4.075056303669664E-3 0
-2.5321023907424792E-3 0
-4.411527734591883E-3 0
1.7755958572859192E-3 0
-1.6269311203203041E-3 0
-1.8886576671034766E-3 0
4.407488164512508E-3 0
-5.366331636444962E-5 0
1.2853007959062493E-4 0
-1.5719080151625027E-3 0
2.504976525505604E-3 0
2.1790267542373862E-3 0
2.0353217470986326E-3 0
2.468360144419644E-3 0
-1.796568937967065E-3 0
2.695402192071355E-4 0
1.2041857532801998E-4 0
4.170500312425377E-3 0
-2.1667960368719854E-3 0
-1.6880626384505808E-3 0
1.3418039797555021E-3 0
-2.80800874888095E-3 0
1.1352596804373061E-3 0
4.310871043053993E-3 0
4.841095542202835E-1 0
5.037591455258001E-3 0
1.2014308782510685E-3 0
-3.9688542639011405E-3 0
-4.002667357835832E-3 0
-6.007482756064913E-4 0
-8.514052797153617E-3 0
1.0702182001375094E-3 0
1.8491875988504642E-3 0
1.1914231236386292E-2 0
-8.263598522232893E-3 0
3.922113698753642E-3 0
4.65368962080216E-3 0
4.238196154264312E-3 0
4.27976063062006E-3 0
-8.533216030416832E-3 0
1.3006012279467051E-2 0
1.2802716884455436E-3 0
2.1589533924931685E-5 0
-9.113070090791266E-3 0
-9.493142612319562E-4 0
-4.900487548527398E-3 0
-2.5633282142170843E-3 0
-3.7854244709822956E-3 0
7.586239486561381E-3 0
-1.0890380162695074E-2 0
8.26127927108544E-3 0
-3.8024128730174142E-3 0
3.1186065550237807E-3 0
-3.292147487728478E-3 0
1.664576909974802E-3 0
-1.4650322331482143E-3 0
-2.0685882473892954E-3 0
4.458567884185693E-3 0
9.710580497613425E-5 0
6.514304907066232E-5 0
-1.6189510306932771E-3 0
2.4672009095561788E-3 0
2.368742789265906E-3 0
2.149287813774571E-3 0
2.8055277447088557E-3 0
-1.7834718177348367E-3 0
2.1162808372479386E-5 0
-1.2758229269107347E-4 0
4.20131487484515E-3 0
-1.973207337084912E-3 0
-1.8280586507851625E-3 0
1.477837486621138E-3 0
-2.6524963141994003E-3 0
8.336701025887115E-4 0
5.037591455257994E-3 0
4.83740517964423E-1 0
4.212336479005251E-3 0
-3.383869562319286E-3 0
-3.0086365265997923E-3 0
-4.121034338579933E-3 0
-4.756578143685632E-4 0
-8.594795784772966E-3 0
9.482790967317562E-4 0
1.8633913341755315E-3 0
1.2251480952591128E-2 0
-8.182283245283918E-3 0
3.263043564635011E-3 0
4.657113165570949E-3 0
3.7275539572990154E-3 0
4.473259325788841E-3 0
-9.074379473377123E-3 0
1.2079189821553954E-2 0
1.9102622172658473E-3 0
3.5108211591953413E-4 0
-8.988111458019093E-3 0
-7.575540394800073E-4 0
-4.653323235649184E-3 0
-2.2651121564987078E-3 0
-4.070956074531445E-3 0
8.263269259798697E-3 0
-1.0847825127057224E-2 0
7.529470539980954E-3 0
3.8223764665910906E-3 0
2.2879273138898598E-3 0
-3.164090903993634E-3 0
1.5390051577168936E-3 0
-1.4948227702319978E-3 0
-2.011425739843812E-3 0
4.33386949521601E-3 0
2.672268076628091E-4 0
2.5434910035228358E-5 0
-1.544247757712484E-3 0
2.627093025476229E-3 0
2.5996615994111167E-3 0
2.4663568122325437E-3 0
2.8746130228970244E-3 0
-1.6949958787861351E-3 0
-1.8236441821534128E-4 0
4.000906538646932E-5 0
4.213696419576674E-3 0
-1.7564272200131937E-3 0
-1.8677495249435092E-3 0
1.5613825094012153E-3 0
-2.851429320859109E-3 0
1.2014308782510726E-3 0
4.212336479005267E-3 0
4.8436678817396633E-1 0
8.161088379595222E-3 0
-2.2500756940948908E-3 0
-3.2303842121623088E-3 0
-4.1556909622219185E-3 0
-9.010984345527789E-4 0
-8.49866230750721E-3 0
4.919439582434616E-4 0
2.176183550403106E-3 0
1.197509214345282E-2 0
-7.838226433780729E-3 0
2.9633230465800145E-3 0
4.801300123513319E-3 0
4.458373196326506E-3 0
4.25860583790731E-3 0
-8.186510975898939E-3 0
1.1682959280271741E-2 0
2.4640214616025165E-3 0
4.42850143979641E-4 0
-8.763293766726039E-3 0
-1.0130854343701038E-3 0
-4.545906953224229E-3 0
-2.5288566815920076E-3 0
-3.8005698625801737E-3 0
7.529958035467747E-3 0
-9.724148272678148E-3 0
-1.4781694509057069E-2 0
7.4881005520685455E-3 0
-2.8209011346489185E-3 0
-4.520488212748745E-3 0
-5.104318876844045E-3 0
-1.7770361588992272E-3 0
-1.0668028534283223E-2 0
1.2640993777440884E-4 0
3.6001276188076287E-3 0
1.483212181329825E-2 0
-9.905659335702071E-3 0
4.253535220982847E-3 0
6.536979796217704E-3 0
6.536979796217793E-3 0
4.259874416263243E-3 0
-9.934443550678554E-3 0
1.4903124834235846E-2 0
3.4686058403053097E-3 0
3.3273538200486217E-4 0
-1.09577618375824E-2 0
-1.40098999972631E-3 0
-5.556846608432125E-3 0
-3.968854263901142E-3 0
-3.38386956231928E-3 0
8.161088379595224E-3 0
6.628246367981656E-1 0
-3.862222763472382E-2 0
-1.6358904173553467E-2 0
2.8604680710350158E-2 0
-1.824487711709165E-2 0
1.2934432447253893E-2 0
1.7512892435827345E-2 0
-3.4903035871712035E-2 0
3.003280503190385E-3 0
-8.30180901822821E-4 0
1.476334935706373E-2 0
-1.860676824293658E-2 0
-1.4281843394657039E-2 0
-1.4281843394656884E-2 0
-1.860828015673472E-2 0
1.4770214463731687E-2 0
-8.397986126682306E-4 0
2.985358717500936E-3 0
-3.476722304072389E-2 0
1.7078091842545193E-2 0
1.3957901456584185E-2 0
-2.0139384039508795E-2 0
3.125684309557864E-2 0
-1.877268893888293E-2 0
-3.9705972849931374E-2 0
7.4881005520692845E-3 0
-7.801430498526101E-3 0
5.45571761269361E-3 0
-2.108929760357898E-3 0
-3.3350914909275873E-3 0
-3.744474296650277E-3 0
-1.375640108022997E-3 0
-7.899358821000048E-3 0
6.999427733289361E-6 0
2.669760323521473E-3 0
1.0931393274711949E-2 0
-7.176135286570169E-3 0
3.2576076004507365E-3 0
4.732519750688284E-3 0
4.339309070077688E-3 0
2.8631260786997513E-3 0
-7.454422873369628E-3 0
1.0906308424171342E-2 0
2.481798855555994E-3 0
3.969629517284238E-4 0
-8.079694412875886E-3 0
-8.456087050238956E-4 0
-4.002667357835833E-3 0
-3.0086365265997992E-3 0
-2.250075694094889E-3 0
-3.8622227634723845E-2 0
5.863582238082585E-1 0
-2.8167127662738906E-2 0
-1.1852206302723144E-2 0
2.0977578802129436E-2 0
-1.3171466172751164E-2 0
9.484074720223461E-3 0
1.2872648550893892E-2 0
-2.517275908624362E-2 0
2.4148105501504385E-3 0
3.9967068782563106E-5 0
1.1145137843447082E-2 0
-1.4474183290335854E-2 0
-9.615056147432938E-3 0
-9.432408527544203E-3 0
-1.39550046705249E-2 0
1.0879057151860024E-2 0
-8.04989209298905E-4 0
2.257593820702306E-3 0
-2.5565655917224085E-2 0
1.238852908331817E-2 0
1.0166663236923012E-2 0
-1.5504633868138525E-2 0
2.369168669489726E-2 0
-1.4090030954427395E-2 0
-2.8209011346501662E-3 0
5.456240502053213E-3 0
-7.840726839033953E-3 0
5.402801435009874E-3 0
-2.1775891812634575E-3 0
-3.4250592033744625E-3 0
-3.861381195250342E-3 0
-1.5194640617685723E-3 0
-8.048117037730486E-3 0
-1.3509949695704625E-4 0
2.6404780344327313E-3 0
1.0894282774424958E-2 0
-7.532699526251338E-3 0
3.4080636190227265E-3 0
4.287031123201321E-3 0
4.10211669061936E-3 0
3.0842948714816477E-3 0
-7.323172350527308E-3 0
1.114262646648024E-2 0
2.394121991637544E-3 0
6.200299140754499E-4 0
-8.271207285914286E-3 0
-6.007482756065001E-4 0
-4.1210343385799314E-3 0
-3.230384212162315E-3 0
-1.635890417355347E-2 0
-2.81671276627389E-2 0
5.864357180663415E-1 0
-2.8069684771372252E-2 0
-1.1734504344135142E-2 0
2.1121301563758268E-2 0
-1.2991586849267864E-2 0
9.707767421336182E-3 0
1.3149320109057106E-2 0
-2.489344727889011E-2 0
2.7833596879568464E-3 0
-2.621659725528251E-4 0
1.1314609534394364E-2 0
-1.4208435968879761E-2 0
-9.03870141516148E-3 0
-8.885681251351182E-3 0
-1.348127808343162E-2 0
1.1111505587977208E-2 0
-1.1688516018401103E-3 0
2.6108177729256147E-3 0
-2.618643938954436E-2 0
1.2981260447063568E-2 0
9.634728022430011E-3 0
-1.475104228240583E-2 0
2.2808875170009506E-2 0
-4.520488212747626E-3 0
-2.1072070704075446E-3 0
5.404661150645474E-3 0
-7.90555658580734E-3 0
5.3217528924247495E-3 0
-2.2827539707107854E-3 0
-3.5672407100100214E-3 0
-4.05607498431673E-3 0
-1.7981254224403935E-3 0
-8.436660308918837E-3 0
-5.890172144050796E-4 0
2.2972279075990126E-3 0
1.1537686596997701E-2 0
-7.2651338480889185E-3 0
3.487326938742738E-3 0
4.7968144298783395E-3 0
4.500624876740593E-3 0
3.3517638189093264E-3 0
-7.374039780436175E-3 0
1.1301263895681897E-2 0
2.2108442220993593E-3 0
8.524419974193966E-4 0
-8.514052797153622E-3 0
-4.756578143685671E-4 0
-4.155690962221921E-3 0
2.860468071035015E-2 0
-1.18522063027231E-2 0
-2.806968477137226E-2 0
5.86549024907298E-1 0
-2.7937417476489056E-2 0
-1.1570850221570056E-2 0
2.1338447524868617E-2 0
-1.2698689755737586E-2 0
1.0084044772483937E-2 0
1.3525315862238528E-2 0
-2.477230204314406E-2 0
2.3641930429939687E-3 0
-7.282800284131462E-4 0
1.1337201111410575E-2 0
-1.3296529675894718E-2 0
-8.805203248319817E-3 0
-8.567852031636361E-3 0
-1.370923560683688E-2 0
1.1397636545152917E-2 0
-1.6426804627334597E-3 0
3.278419931549199E-3 0
-2.7196810685938586E-2 0
1.4081113596853706E-2 0
8.369090426433416E-3 0
-1.390041808838484E-2 0
-5.104318876844675E-3 0
-3.33193230528708E-3 0
-2.1734122040739075E-3 0
5.324269685817723E-3 0
-8.002577867173828E-3 0
5.2006236866783085E-3 0
-2.442128397432385E-3 0
-3.7813963261549535E-3 0
-4.361427838907378E-3 0
-2.1833357783203654E-3 0
-8.844450489487185E-3 0
-5.654738911703777E-4 0
2.823653029904935E-3 0
1.1811631945281816E-2 0
-6.483780326734252E-3 0
3.785219098966138E-3 0
4.825729615083498E-3 0
4.338110348197826E-3 0
3.3622985836765057E-3 0
-7.557856840285064E-3 0
1.1452560876396815E-2 0
2.0069222273625537E-3 0
1.0702182001375068E-3 0
-8.59479578477297E-3 0
-9.010984345527775E-4 0
-1.8244877117091638E-2 0
2.0977578802129394E-2 0
-1.1734504344135128E-2 0
-2.7937417476489056E-2 0
5.867000223742873E-1 0
-2.775253661464975E-2 0
-1.1325299299815648E-2 0
2.1668272700255693E-2 0
-1.2269796046546003E-2 0
1.0529448427259447E-2 0
1.3609142986637573E-2 0
-2.5095772913951285E-2 0
2.1459107711302035E-3 0
-9.086994226260656E-4 0
1.0527366106028923E-2 0
-1.3653883600669882E-2 0
-9.177138457306023E-3 0
-8.407175382954617E-3 0
-1.3830396490614556E-2 0
1.1792639305546714E-2 0
-2.1578267675497055E-3 0
4.135660759224525E-3 0
-2.8440268805140438E-2 0
1.5375114139731083E-2 0
8.482699383370686E-3 0
-1.7770361588990283E-3 0
-3.7405406433017557E-3 0
-3.419829947092394E-3 0
-2.279573636215943E-3 0
5.20063607598811E-3 0
-8.146208420531206E-3 0
5.029667745683683E-3 0
-2.645601517691717E-3 0
-4.026415507266474E-3 0
-4.595282543049687E-3 0
-2.4438875029410972E-3 0
-8.721968029740282E-3 0
-2.487636161402956E-4 0
2.905222862958007E-3 0
1.144557899670008E-2 0
-6.463399487007838E-3 0
3.355630675488487E-3 0
4.594568354321121E-3 0
4.087741630533737E-3 0
3.3935824472063913E-3 0
-7.744915626202323E-3 0
1.1642492114058618E-2 0
1.849187598850465E-3 0
9.482790967317511E-4 0
-8.498662307507211E-3 0
1.2934432447253882E-2 0
-1.3171466172751148E-2 0
2.1121301563758264E-2 0
-1.1570850221570044E-2 0
-2.7752536614649742E-2 0
5.869190750301212E-1 0
-2.7474092611373038E-2 0
-1.097427064743783E-2 0
2.20723697469949E-2 0
-1.1953524300149815E-2 0
1.0682897048081775E-2 0
1.3338620149491155E-2 0
-2.7053069245215586E-2 0
1.693989241521499E-3 0
-1.4739405066702585E-3 0
9.858712997812219E-3 0
-1.3694601405618035E-2 0
-9.034386093969442E-3 0
-8.122531293965358E-3 0
-1.3868149521972099E-2 0
1.2075163788748192E-2 0
-2.519440179445155E-3 0
4.7887839010397806E-3 0
-2.876145461783495E-2 0
1.488961442000877E-2 0
-1.0668028534283145E-2 0
-1.3740862085819287E-3 0
-3.859692859720917E-3 0
-3.568027394325203E-3 0
-2.4472747833025757E-3 0
5.02235585707236E-3 0
-8.331858390373875E-3 0
4.841869340723386E-3 0
-2.83785038491089E-3 0
-4.195489559796655E-3 0
-4.81570174416642E-3 0
-2.3353677076673614E-3 0
-8.930523706224342E-3 0
-3.225342077634103E-4 0
2.7988446022924386E-3 0
1.1275005377958659E-2 0
-6.870310337514785E-3 0
3.1031414879104306E-3 0
4.476937549478092E-3 0
3.972944617818001E-3 0
3.539710374746248E-3 0
-7.94289402149186E-3 0
1.1914231236386288E-2 0
1.8633913341755321E-3 0
4.919439582434642E-4 0
1.7512892435827345E-2 0
9.484074720223454E-3 0
-1.2991586849267883E-2 0
2.1338447524868607E-2 0
-1.1325299299815671E-2 0
-2.747409261137306E-2 0
5.872584116343319E-1 0
-2.705584238022498E-2 0
-1.051142848855669E-2 0
2.2427089757388226E-2 0
-1.1948528805852567E-2 0
1.0071022745993518E-2 0
1.3472343935577342E-2 0
-2.7042634498191942E-2 0
1.562627560955588E-3 0
-1.4302973723861988E-3 0
1.0049027816397193E-2 0
-1.356989957720474E-2 0
-8.908593379076398E-3 0
-8.044285019179791E-3 0
-1.3906450236695038E-2 0
1.2040835000776667E-2 0
-2.4647195169863077E-3 0
3.90582374831015E-3 0
-2.7762968894189888E-2 0
1.2640993777432062E-4 0
-7.907618688238211E-3 0
-1.53019319761992E-3 0
-4.066191203717447E-3 0
-3.7952905683426084E-3 0
-2.66793365277994E-3 0
4.819401929063567E-3 0
-8.50639556998316E-3 0
4.694121526494722E-3 0
-2.9606421149450265E-3 0
-4.397563330056662E-3 0
-4.925122263121605E-3 0
-2.510870983468992E-3 0
-8.943746585274451E-3 0
-3.2868245435756304E-5 0
2.8414952995164753E-3 0
1.1030494214876129E-2 0
-7.043601414696521E-3 0
3.067634474904957E-3 0
4.490195932752552E-3 0
3.986335513549939E-3 0
3.802459171948069E-3 0
-8.263598522232888E-3 0
1.2251480952591131E-2 0
2.1761835504031223E-3 0
-3.490303587171202E-2 0
1.2872648550893899E-2 0
9.707767421336198E-3 0
-1.2698689755737574E-2 0
2.1668272700255717E-2 0
-1.097427064743781E-2 0
-2.7055842380224952E-2 0
5.878160524683641E-1 0
-2.633882627138241E-2 0
-9.77706385443759E-3 0
2.3348512838418812E-2 0
-1.1407768913081116E-2 0
1.0797820999265307E-2 0
1.3763453530722789E-2 0
-2.6308641861044788E-2 0
5.093561992805605E-4 0
-1.9224713951216596E-3 0
9.913196623482964E-3 0
-1.3631843903048396E-2 0
-8.867744839066348E-3 0
-8.096865147753039E-3 0
-1.4083676146009385E-2 0
1.2021054434360582E-2 0
-1.933964880788176E-3 0
2.7415100051575783E-3 0
3.6001276188075766E-3 0
-3.023261739813399E-5 0
-8.090970321633226E-3 0
-1.8181474955980288E-3 0
-4.371037654846216E-3 0
-4.063328838124548E-3 0
-2.903889808903608E-3 0
4.644909617241644E-3 0
-8.568076183387084E-3 0
4.739421851606135E-3 0
-2.8916199805617943E-3 0
-4.343218667088434E-3 0
-5.116903650799004E-3 0
-2.322627704232846E-3 0
-8.341819246969638E-3 0
-1.6738590881669387E-4 0
2.554601525086697E-3 0
1.1004683612000247E-2 0
-7.08671506856547E-3 0
3.3098639498289396E-3 0
4.539970398378296E-3 0
4.246485123176695E-3 0
3.922113698753645E-3 0
-8.182283245283913E-3 0
1.1975092143452819E-2 0
3.003280503190375E-3 0
-2.517275908624362E-2 0
1.3149320109057101E-2 0
1.0084044772483921E-2 0
-1.2269796046546013E-2 0
2.207236974699489E-2 0
-1.0511428488556698E-2 0
-2.633882627138237E-2 0
5.888458694602947E-1 0
-2.5201866334649024E-2 0
-8.628502422778737E-3 0
2.3449027708751263E-2 0
-1.249473373194144E-2 0
1.0565715357437857E-2 0
1.1862692147124624E-2 0
-2.74399478592553E-2 0
1.9422277128814782E-4 0
-2.3043795166230235E-3 0
1.0049070388830612E-2 0
-1.3771111844496826E-2 0
-8.893986737520518E-3 0
-8.277610818089105E-3 0
-1.4429791390837656E-2 0
1.225211573255714E-2 0
-1.4313406390631916E-3 0
1.4832121813298398E-2 0
2.5905949128383872E-3 0
-2.2215901958127132E-4 0
-8.45291732216263E-3 0
-2.1532976043437757E-3 0
-4.628654079516529E-3 0
-4.311741109115253E-3 0
-3.0565978753121204E-3 0
4.7289179662632136E-3 0
-8.32957922681802E-3 0
5.103236438067164E-3 0
-2.594468545417889E-3 0
-4.495986108152376E-3 0
-5.141918484448918E-3 0
-2.448903492826998E-3 0
-8.666896672809116E-3 0
-2.496809292284719E-4 0
2.4777455574778516E-3 0
1.1318266076408158E-2 0
-7.040814850510924E-3 0
3.7291641098918253E-3 0
4.4808826367029415E-3 0
4.653689620802155E-3 0
3.263043564635006E-3 0
-7.838226433780729E-3 0
-8.301809018228046E-4 0
2.414810550150442E-3 0
-2.489344727889012E-2 0
1.3525315862238532E-2 0
1.0529448427259436E-2 0
-1.1953524300149817E-2 0
2.242708975738823E-2 0
-9.777063854437608E-3 0
-2.5201866334649E-2 0
5.902373021518739E-1 0
-2.4874138891233924E-2 0
-9.613433767713151E-3 0
2.3998208983933383E-2 0
-1.2894836978687681E-2 0
9.449269375742454E-3 0
1.120698023746828E-2 0
-2.809620207760706E-2 0
3.551169832928657E-4 0
-2.2521839294728668E-3 0
1.0521677113551092E-2 0
-1.4230601597114444E-2 0
-8.746903872133E-3 0
-8.515925918740886E-3 0
-1.4082928831002746E-2 0
1.1852030339822272E-2 0
-9.905659335702215E-3 0
1.0823155273431053E-2 0
2.492819477253291E-3 0
-5.837501613424004E-4 0
-8.69326839268229E-3 0
-2.4220014943188515E-3 0
-5.021689652392521E-3 0
-4.494063030929073E-3 0
-2.7985664021826697E-3 0
5.2398395655755626E-3 0
-8.207807029120216E-3 0
4.684995745223679E-3 0
-3.1877645603856407E-3 0
-4.543005403920221E-3 0
-4.61978948616873E-3 0
-2.2490223982117342E-3 0
-8.859549946874738E-3 0
-1.1832440504831817E-4 0
2.6843310099888737E-3 0
1.1860509654339437E-2 0
-6.984509101602135E-3 0
4.2054853549138155E-3 0
4.238196154264305E-3 0
4.657113165570946E-3 0
2.9633230465800162E-3 0
1.4763349357063716E-2 0
3.996706878255046E-5 0
2.7833596879568503E-3 0
-2.4772302043144054E-2 0
1.3609142986637582E-2 0
1.0682897048081775E-2 0
-1.1948528805852602E-2 0
2.3348512838418805E-2 0
-8.62850242277875E-3 0
-2.487413889123393E-2 0
5.926755253506235E-1 0
-2.3006360351733143E-2 0
-1.050805841869744E-2 0
2.4518765571544886E-2 0
-1.4920615764257728E-2 0
5.479738933844837E-3 0
1.1323657876449258E-2 0
-2.7724509792886806E-2 0
9.97450651198141E-4 0
-2.1425276430430116E-3 0
1.0788538719480087E-2 0
-1.4723320383141208E-2 0
-7.817661333043704E-3 0
-9.508572575708038E-3 0
-1.4499572160336417E-2 0
4.253535220982991E-3 0
-7.1723771470048655E-3 0
1.0838770093572165E-2 0
2.32901795105385E-3 0
-4.149380818485125E-4 0
-8.643666283532744E-3 0
-2.4833512294757964E-3 0
-4.882358557978235E-3 0
-4.118131290376579E-3 0
-2.3922706361301535E-3 0
5.313315286105109E-3 0
-8.223176773699275E-3 0
4.864948400045345E-3 0
-3.393191197122415E-3 0
-4.6852900505961696E-3 0
-5.275449854808762E-3 0
-2.5701821663620702E-3 0
-8.730761763321236E-3 0
2.041343067371557E-4 0
2.5151291657151513E-3 0
1.1980634267004728E-2 0
-7.415240484336341E-3 0
4.279760630620067E-3 0
3.7275539572990154E-3 0
4.801300123513323E-3 0
-1.8606768242936562E-2 0
1.1145137843447079E-2 0
-2.621659725528241E-4 0
2.364193042993976E-3 0
-2.509577291395128E-2 0
1.3338620149491142E-2 0
1.0071022745993516E-2 0
-1.140776891308112E-2 0
2.3449027708751267E-2 0
-9.613433767713103E-3 0
-2.3006360351733108E-2 0
5.917339996597601E-1 0
-2.5873454968689563E-2 0
-8.241639279026129E-3 0
2.109474174084503E-2 0
-1.4863742214233536E-2 0
9.281836508880948E-3 0
1.21949633136652E-2 0
-2.685969188399818E-2 0
2.38686474516604E-3 0
-2.620358454625423E-3 0
1.1989006121298952E-2 0
-1.4905935268611257E-2 0
-7.746280378309317E-3 0
-1.0456790080735422E-2 0
6.536979796217526E-3 0
3.3212985881186773E-3 0
-7.495132971478311E-3 0
1.1560986279326564E-2 0
2.8573669626910992E-3 0
-2.0175082178507383E-4 0
-8.945165478139021E-3 0
-2.4246294409724562E-3 0
-4.975105829023804E-3 0
-4.408821885430351E-3 0
-2.6170324235952167E-3 0
5.362330017999629E-3 0
-9.626902484345487E-3 0
4.712218351801255E-3 0
-3.8979409405969392E-3 0
-5.080281289630459E-3 0
-5.313331593431504E-3 0
-2.2999610348982064E-3 0
-9.313512250345799E-3 0
1.4871290810270838E-4 0
2.155062745990629E-3 0
1.278294519697122E-2 0
-8.533216030416834E-3 0
4.4732593257888415E-3 0
4.458373196326506E-3 0
-1.4281843394657047E-2 0
-1.4474183290335844E-2 0
1.1314609534394365E-2 0
-7.28280028413152E-4 0
2.1459107711302014E-3 0
-2.705306924521558E-2 0
1.347234393557735E-2 0
1.0797820999265304E-2 0
-1.2494733731941427E-2 0
2.399820898393339E-2 0
-1.0508058418697444E-2 0
-2.587345496868955E-2 0
6.023802111942917E-1 0
-2.5291008823473616E-2 0
-8.227514352505516E-3 0
2.445462889433115E-2 0
-1.2733560806022249E-2 0
1.0251991812551597E-2 0
1.429874718421901E-2 0
-2.7885210433449176E-2 0
2.947168372003714E-3 0
-2.6390153259567206E-3 0
1.3528170444395159E-2 0
-1.629661671781236E-2 0
-9.203246828423259E-3 0
6.536979796217918E-3 0
4.668828763020407E-3 0
3.3704970642496083E-3 0
-7.288433530417709E-3 0
1.1777918012495588E-2 0
2.8582100686028148E-3 0
-3.0789243584873074E-4 0
-9.02998812777098E-3 0
-2.464425526008041E-3 0
-5.229082707170946E-3 0
-5.113737540710621E-3 0
-3.890572815076683E-3 0
4.712218351801253E-3 0
-9.626902484345494E-3 0
5.368351931821149E-3 0
-2.6443759671114547E-3 0
-4.339792993575987E-3 0
-5.110686248701564E-3 0
-2.187809808394999E-3 0
-9.335383251658898E-3 0
4.291590302753327E-4 0
1.883179267565095E-3 0
1.3006012279467056E-2 0
-9.074379473377126E-3 0
4.2586058379073125E-3 0
-1.4281843394656891E-2 0
-9.615056147432932E-3 0
-1.4208435968879763E-2 0
1.133720111141057E-2 0
-9.086994226260596E-4 0
1.6939892415215004E-3 0
-2.7042634498191942E-2 0
1.3763453530722796E-2 0
1.0565715357437859E-2 0
-1.2894836978687685E-2 0
2.451876557154489E-2 0
-8.24163927902613E-3 0
-2.5291008823473567E-2 0
6.023802111942917E-1 0
-2.5881935088641082E-2 0
-1.0469552964154227E-2 0
2.3898578912235017E-2 0
-1.228748583042046E-2 0
1.0407885530777103E-2 0
1.415457918388943E-2 0
-2.8166387211524316E-2 0
3.7849656126403256E-3 0
-2.9856027533165332E-3 0
1.3670026519958774E-2 0
-1.6367904233525996E-2 0
4.259874416263145E-3 0
4.3355493062659425E-3 0
4.342541105647736E-3 0
3.4555367442742177E-3 0
-6.634313181874326E-3 0
1.1367278059131644E-2 0
2.9468246180321188E-3 0
-7.56331722046737E-5 0
-8.56690534120903E-3 0
-2.651099306164814E-3 0
-5.248098604834128E-3 0
-4.685284321504249E-3 0
-3.4005620138300324E-3 0
4.870973005054238E-3 0
-8.232294670685647E-3 0
5.338161199886202E-3 0
-2.449124239038992E-3 0
-4.010874226101711E-3 0
-5.063725088383463E-3 0
-2.194454911510053E-3 0
-9.093972451397158E-3 0
2.595007850570376E-4 0
1.2802716884455392E-3 0
1.2079189821553947E-2 0
-8.186510975898932E-3 0
-1.8608280156734713E-2 0
-9.432408527544218E-3 0
-9.038701415161478E-3 0
-1.3296529675894704E-2 0
1.0527366106028923E-2 0
-1.4739405066702585E-3 0
1.5626275609555893E-3 0
-2.630864186104478E-2 0
1.186269214712464E-2 0
9.449269375742425E-3 0
-1.4920615764257754E-2 0
2.1094741740845014E-2 0
-8.227514352505513E-3 0
-2.5881935088641093E-2 0
5.917390831925824E-1 0
-2.3018893034307514E-2 0
-9.574663327889626E-3 0
2.3348313921144767E-2 0
-1.1176844372861976E-2 0
9.597457949211066E-3 0
1.4209002031708471E-2 0
-2.6478463031559214E-2 0
4.207157731027705E-3 0
-1.995095719899556E-3 0
1.2502107088175573E-2 0
-9.934443550678544E-3 0
2.971371455153449E-3 0
4.24978750038011E-3 0
4.7915480625198605E-3 0
3.634023588186501E-3 0
-6.4852891673958715E-3 0
1.14810092060976E-2 0
2.9380005473913645E-3 0
-2.6044531048431967E-4 0
-8.803509317341408E-3 0
-2.2490697220902524E-3 0
-4.647156327862233E-3 0
-4.50953693303734E-3 0
-3.2151203237045936E-3 0
4.70987809515574E-3 0
-8.245616634749195E-3 0
5.308914268947665E-3 0
-2.9155404111106766E-3 0
-4.312311598877471E-3 0
-5.288050766151481E-3 0
-2.049032964151672E-3 0
-9.183143197505024E-3 0
2.1589533924938546E-5 0
1.9102622172658566E-3 0
1.1682959280271733E-2 0
1.4770214463731685E-2 0
-1.3955004670524894E-2 0
-8.885681251351182E-3 0
-8.80520324831983E-3 0
-1.365388360066988E-2 0
9.858712997812201E-3 0
-1.430297372386221E-3 0
5.093561992805524E-4 0
-2.7439947859255305E-2 0
1.1206980237468306E-2 0
5.479738933844841E-3 0
-1.486374221423355E-2 0
2.4454628894331146E-2 0
-1.0469552964154217E-2 0
-2.3018893034307524E-2 0
5.926845281582365E-1 0
-2.491288376558429E-2 0
-8.51896812496461E-3 0
2.3114502124493775E-2 0
-1.150857353571872E-2 0
9.884700572110446E-3 0
1.4968355378694774E-2 0
-2.6798162191511814E-2 0
4.865164167403428E-3 0
-9.014337999543137E-4 0
1.4903124834235915E-2 0
-7.37527537776398E-3 0
3.1713246690646866E-3 0
4.516880209187262E-3 0
4.795723914625257E-3 0
3.3890110683560937E-3 0
-6.754097386147968E-3 0
1.1126436556164796E-2 0
2.5651197058075173E-3 0
-2.496577579617416E-4 0
-8.72282999761607E-3 0
-2.367913312281673E-3 0
-5.226190973866881E-3 0
-4.426933613140603E-3 0
-2.65139099712764E-3 0
5.1721848024751564E-3 0
-8.437782761228056E-3 0
4.8963159596432035E-3 0
-3.2991082164536257E-3 0
-3.9766374676121225E-3 0
-5.075543566832619E-3 0
-1.5820906513293995E-3 0
-9.113070090791263E-3 0
3.5108211591951776E-4 0
2.4640214616025173E-3 0
-8.397986126682104E-4 0
1.0879057151860024E-2 0
-1.348127808343162E-2 0
-8.567852031636356E-3 0
-9.177138457306014E-3 0
-1.3694601405618031E-2 0
1.0049027816397193E-2 0
-1.922471395121662E-3 0
1.9422277128816406E-4 0
-2.8096202077607053E-2 0
1.1323657876449246E-2 0
9.281836508880963E-3 0
-1.2733560806022247E-2 0
2.389857891223501E-2 0
-9.574663327889636E-3 0
-2.491288376558427E-2 0
5.903561018613177E-1 0
-2.5468995339699325E-2 0
-9.332079387715067E-3 0
2.1820247987138122E-2 0
-1.1168404022112343E-2 0
9.421035357419344E-3 0
1.5424535046016966E-2 0
-2.732627828808732E-2 0
3.7884994409387663E-3 0
3.4686058403052057E-3 0
1.0943572298644585E-2 0
-7.28026644214933E-3 0
3.371788953441092E-3 0
4.347663016947959E-3 0
4.631466261227788E-3 0
3.1692491249742934E-3 0
-6.994365937736656E-3 0
1.100465746974317E-2 0
2.4672002393398068E-3 0
-2.5487641850331136E-5 0
-8.505838893373583E-3 0
-2.1581514347983766E-3 0
-5.252495848801394E-3 0
-4.23579581385871E-3 0
-3.0083829963176508E-3 0
4.90687557087078E-3 0
-8.811347340611163E-3 0
4.979574711521343E-3 0
-3.3448731904043095E-3 0
-3.5036038128613183E-3 0
-5.0619377571061875E-3 0
-9.493142612319647E-4 0
-8.988111458019078E-3 0
4.42850143979628E-4 0
2.9853587175009285E-3 0
-8.049892092989113E-4 0
1.1111505587977211E-2 0
-1.370923560683688E-2 0
-8.407175382954607E-3 0
-9.034386093969437E-3 0
-1.3569899577204735E-2 0
9.913196623482971E-3 0
-2.304379516623005E-3 0
3.5511698329286547E-4 0
-2.7724509792886824E-2 0
1.2194963313665196E-2 0
1.0251991812551601E-2 0
-1.2287485830420476E-2 0
2.334831392114477E-2 0
-8.518968124964573E-3 0
-2.5468995339699346E-2 0
5.893967610662166E-1 0
-2.721003603744687E-2 0
-9.443677163782182E-3 0
2.106526523420517E-2 0
-1.1533464432995043E-2 0
9.327805935722232E-3 0
1.4175830345354166E-2 0
-2.7072955881176503E-2 0
3.327353820049636E-4 0
2.4900125617422107E-3 0
1.1153279768502859E-2 0
-7.363928263546258E-3 0
3.3762741286867477E-3 0
4.110095186775049E-3 0
4.499306982610111E-3 0
3.0676013093909067E-3 0
-7.135885957867292E-3 0
1.1222373018893457E-2 0
2.5881709062348024E-3 0
2.4723967950984814E-4 0
-9.227206257110104E-3 0
-2.274115801630699E-3 0
-5.106831681872204E-3 0
-4.2161459522506E-3 0
-3.2032285691702173E-3 0
5.0287691586857015E-3 0
-8.94986865816042E-3 0
5.388890801756402E-3 0
-3.3552779176409158E-3 0
-3.0249490768865764E-3 0
-4.900487548527398E-3 0
-7.575540394800179E-4 0
-8.763293766726037E-3 0
-3.4767223040723876E-2 0
2.257593820702306E-3 0
-1.168851601840107E-3 0
1.1397636545152908E-2 0
-1.383039649061456E-2 0
-8.12253129396536E-3 0
-8.9085933790764E-3 0
-1.363184390304839E-2 0
1.0049070388830624E-2 0
-2.252183929472867E-3 0
9.974506511981347E-4 0
-2.6859691883998185E-2 0
1.4298747184218998E-2 0
1.0407885530777098E-2 0
-1.1176844372861974E-2 0
2.311450212449378E-2 0
-9.332079387715053E-3 0
-2.721003603744691E-2 0
5.892619671040574E-1 0
-2.8985897614700322E-2 0
-9.023064157842675E-3 0
2.038626681907521E-2 0
-1.2603097350056736E-2 0
1.049328858120237E-2 0
1.293300796004942E-2 0
-1.0957761837582552E-2 0
3.9546639393193733E-4 0
2.3925270286449096E-3 0
1.1302057150065327E-2 0
-7.552808117435366E-3 0
3.4008699271354244E-3 0
3.973064678009791E-3 0
4.467766732893347E-3 0
3.2437634078253414E-3 0
-7.157156703899642E-3 0
1.1654052210442427E-2 0
2.36653130682304E-3 0
1.338380765047277E-4 0
-9.32050842006092E-3 0
-2.0458605605184776E-3 0
-5.081577394024035E-3 0
-3.86033423093441E-3 0
-3.2787044091685522E-3 0
5.41122200264564E-3 0
-9.076480171745269E-3 0
5.944672884951352E-3 0
-3.4754969358247695E-3 0
-2.563328214217096E-3 0
-4.653323235649184E-3 0
-1.0130854343700895E-3 0
1.7078091842545197E-2 0
-2.5565655917224095E-2 0
2.6108177729256016E-3 0
-1.6426804627334612E-3 0
1.1792639305546703E-2 0
-1.3868149521972096E-2 0
-8.0442850191798E-3 0
-8.867744839066351E-3 0
-1.3771111844496822E-2 0
1.052167711355108E-2 0
-2.142527643043006E-3 0
2.3868647451660203E-3 0
-2.788521043344917E-2 0
1.4154579183889425E-2 0
9.597457949211075E-3 0
-1.15085735357187E-2 0
2.1820247987138115E-2 0
-9.443677163782188E-3 0
-2.8985897614700305E-2 0
5.902746227108533E-1 0
-3.122874425123441E-2 0
-7.828502142535776E-3 0
1.956571726575399E-2 0
-1.3402016080765742E-2 0
1.0929933028848805E-2 0
-1.4009899997260657E-3 0
-8.083690392731687E-3 0
6.147000350043402E-4 0
2.2076546411555287E-3 0
1.14526480498285E-2 0
-7.744894280006889E-3 0
3.532269901623814E-3 0
3.963971876701711E-3 0
4.5031645356034935E-3 0
3.695967133063353E-3 0
-6.961959234664725E-3 0
1.2059917722744505E-2 0
2.2025426897159246E-3 0
3.816790865500229E-4 0
-9.173255094632377E-3 0
-2.0715865204068954E-3 0
-5.042337692485905E-3 0
-3.466813439559318E-3 0
-3.3328927830986073E-3 0
5.952088881562399E-3 0
-9.374850165319982E-3 0
6.683599699125361E-3 0
-3.7854244709822787E-3 0
-2.2651121564986887E-3 0
-4.545906953224235E-3 0
1.3957901456584182E-2 0
1.2388529083318164E-2 0
-2.6186439389544354E-2 0
3.2784199315491975E-3 0
-2.157826767549701E-3 0
1.2075163788748181E-2 0
-1.390645023669503E-2 0
-8.096865147753032E-3 0
-8.893986737520529E-3 0
-1.4230601597114435E-2 0
1.0788538719480083E-2 0
-2.620358454625427E-3 0
2.9471683720037117E-3 0
-2.8166387211524313E-2 0
1.4209002031708487E-2 0
9.884700572110447E-3 0
-1.1168404022112336E-2 0
2.1065265234205172E-2 0
-9.023064157842663E-3 0
-3.1228744251234432E-2 0
5.927426347979163E-1 0
-3.483244371026561E-2 0
-5.557787506197307E-3 0
1.8448748938309903E-2 0
-1.396688809170396E-2 0
-5.5568466084323235E-3 0
-8.487084860594491E-4 0
-8.275288596538869E-3 0
8.499389282373161E-4 0
2.006839188501238E-3 0
1.1642494972689944E-2 0
-7.947919026698723E-3 0
3.7885689679638245E-3 0
4.236655925509603E-3 0
4.5105018491589325E-3 0
4.35557188740403E-3 0
-7.266150384708807E-3 0
1.2815994914034389E-2 0
1.850129550501928E-3 0
1.1041362973416243E-4 0
-9.333243099120918E-3 0
-1.6116774977918379E-3 0
-5.052165522626316E-3 0
-3.0109778194963694E-3 0
-3.470569310250701E-3 0
6.683696166809919E-3 0
-9.994679674682806E-3 0
7.58623948656137E-3 0
-4.070956074531448E-3 0
-2.528856681592014E-3 0
-2.0139384039508795E-2 0
1.0166663236923012E-2 0
1.2981260447063565E-2 0
-2.71968106859386E-2 0
4.135660759224526E-3 0
-2.5194401794451384E-3 0
1.2040835000776672E-2 0
-1.4083676146009385E-2 0
-8.277610818089112E-3 0
-8.746903872133E-3 0
-1.4723320383141218E-2 0
1.1989006121298959E-2 0
-2.6390153259567297E-3 0
3.7849656126403308E-3 0
-2.6478463031559214E-2 0
1.4968355378694759E-2 0
9.42103535741935E-3 0
-1.1533464432995055E-2 0
2.038626681907524E-2 0
-7.828502142535805E-3 0
-3.483244371026557E-2 0
5.975427340017583E-1 0
-4.012167511463317E-2 0
-3.068316434181318E-3 0
1.9853598988777286E-2 0
-3.968854263901083E-3 0
-4.004440531510683E-3 0
-6.026922148838405E-4 0
-8.51408192460715E-3 0
1.072770648513328E-3 0
1.852339354766733E-3 0
1.1913331095330198E-2 0
-8.273655285868774E-3 0
3.9026196526524503E-3 0
4.638626144750522E-3 0
4.2462505364786645E-3 0
4.31431886244716E-3 0
-8.509075880664194E-3 0
1.2981872129714404E-2 0
1.2457133468528883E-3 0
1.3535650120157888E-5 0
-9.098007842375641E-3 0
-9.298179499625395E-4 0
-4.890434355717769E-3 0
-2.5624228699371123E-3 0
-3.7885840729461277E-3 0
7.583699644131753E-3 0
-1.0890380162695066E-2 0
8.263269259798683E-3 0
-3.800569862580151E-3 0
3.125684309557864E-2 0
-1.5504633868138518E-2 0
9.634728022429996E-3 0
1.4081113596853722E-2 0
-2.8440268805140445E-2 0
4.788783901039777E-3 0
-2.464719516986297E-3 0
1.2021054434360577E-2 0
-1.4429791390837656E-2 0
-8.515925918740888E-3 0
-7.817661333043704E-3 0
-1.490593526861127E-2 0
1.3528170444395164E-2 0
-2.9856027533165354E-3 0
4.207157731027692E-3 0
-2.6798162191511814E-2 0
1.5424535046016966E-2 0
9.327805935722232E-3 0
-1.2603097350056713E-2 0
1.9565717265753978E-2 0
-5.557787506197247E-3 0
-4.0121675114633215E-2 0
6.045111601949018E-1 0
-4.519942706783999E-2 0
-5.705124862370762E-3 0
-3.383869562319172E-3 0
-3.0091238525728806E-3 0
-4.120970002276006E-3 0
-4.737534279782361E-4 0
-8.590597448141004E-3 0
9.535789578785305E-4 0
1.8651794682976303E-3 0
1.2240639736201408E-2 0
-8.225928861133554E-3 0
3.1740658715356295E-3 0
4.504904687644679E-3 0
3.66800077333802E-3 0
4.509952537104343E-3 0
-9.111072684692627E-3 0
1.2138740228809439E-2 0
2.0624833033047528E-3 0
4.400292227179363E-4 0
-8.944411699236772E-3 0
-7.46790827908474E-4 0
-4.655015356866889E-3 0
-2.2705154080983653E-3 0
-4.07505630366965E-3 0
8.261279271085427E-3 0
-1.0847825127057219E-2 0
7.529958035467741E-3 0
-1.8772688938882915E-2 0
2.369168669489725E-2 0
-1.4751042282405815E-2 0
8.36909042643341E-3 0
1.5375114139731094E-2 0
-2.8761454617834952E-2 0
3.9058237483101505E-3 0
-1.933964880788176E-3 0
1.2252115732557125E-2 0
-1.4082928831002749E-2 0
-9.508572575708057E-3 0
-7.746280378309311E-3 0
-1.629661671781236E-2 0
1.3670026519958769E-2 0
-1.9950957198995537E-3 0
4.865164167403415E-3 0
-2.73262782880873E-2 0
1.4175830345354176E-2 0
1.049328858120235E-2 0
-1.3402016080765727E-2 0
1.84487489383099E-2 0
-3.0683164341813243E-3 0
-4.5199427067840026E-2 0
6.066686119163242E-1 0
-3.94093177573825E-2 0
8.16108837959498E-3 0
-2.2500894010325603E-3 0
-3.229859547498024E-3 0
-4.153900179074215E-3 0
-8.977915975899219E-4 0
-8.494559537109515E-3 0
4.93536324012725E-4 0
2.1675407301734602E-3 0
1.1936281150451455E-2 0
-7.920596484838152E-3 0
2.8518244355496985E-3 0
4.807499210968886E-3 0
4.5259319225609005E-3 0
4.191047111672924E-3 0
-8.192711728843406E-3 0
1.1794465453743106E-2 0
2.546373141387771E-3 0
4.816937832843938E-4 0
-8.754698309664627E-3 0
-1.0146189332779305E-3 0
-4.550073762061143E-3 0
-2.5321023907424797E-3 0
-3.8024128730174125E-3 0
7.529470539980966E-3 0
-9.72414827267818E-3 0
-3.970597284993141E-2 0
-1.4090030954427374E-2 0
2.2808875170009502E-2 0
-1.3900418088384842E-2 0
8.482699383370682E-3 0
1.488961442000878E-2 0
-2.7762968894189884E-2 0
2.7415100051575796E-3 0
-1.431340639063186E-3 0
1.1852030339822262E-2 0
-1.4499572160336415E-2 0
-1.0456790080735415E-2 0
-9.203246828423264E-3 0
-1.6367904233525986E-2 0
1.2502107088175582E-2 0
-9.014337999543012E-4 0
3.788499440938764E-3 0
-2.70729558811765E-2 0
1.2933007960049417E-2 0
1.0929933028848813E-2 0
-1.3966888091703955E-2 0
1.9853598988777286E-2 0
-5.705124862370726E-3 0
-3.940931775738254E-2 0
6.011782418489848E-1 0
