%%MatrixMarket matrix array complex general
%
50 50
4.7193371509023957E-1 0
-2.20514792441155E-3 0
2.0071116788586077E-4 0
-1.88136844934379E-3 0
-1.3592631148716754E-3 0
-2.6635848947191457E-3 0
-7.018912251957531E-4 0
5.529794257715087E-3 0
-1.7886947594228464E-3 0
-1.8256603022553906E-3 0
-4.2955124356888535E-4 0
3.026739611512712E-3 0
2.4470450050241414E-3 0
2.447045005024315E-3 0
3.0279131427083184E-3 0
-4.3487986537718684E-4 0
-1.8129893961089303E-3 0
-1.8098534033471763E-3 0
5.555997135792129E-3 0
-7.227708730963043E-4 0
-2.6680769629480613E-3 0
-1.303759530827873E-3 0
-2.021861868397154E-3 0
3.917480868057343E-4 0
-2.423762858062374E-3 0
-7.774010747723012E-3 0
3.860644035255777E-3 0
-5.7275837048889125E-3 0
3.039051125063125E-3 0
-1.0138480599321582E-2 0
5.399766843697624E-3 0
-1.622899734630269E-3 0
1.8931490423528562E-5 0
-1.7155887593684978E-2 0
-5.6383237867741265E-3 0
1.2252962208036141E-2 0
-7.547741352363731E-3 0
1.1935886907270325E-2 0
1.1935886907270508E-2 0
-7.537778246068183E-3 0
1.220772299694362E-2 0
-5.524830146627489E-3 0
-1.7375399176698128E-2 0
3.91061165702633E-4 0
-2.207704278994775E-3 0
6.274167563711992E-3 0
-1.135490616509817E-2 0
4.5911909512071965E-3 0
-7.2162700225133275E-3 0
4.736232100301801E-3 0
-2.20514792441155E-3 0
4.851051858888404E-1 0
-1.619914903672902E-3 0
1.169325508792106E-4 0
-1.4201016667190912E-3 0
-1.0500307745315274E-3 0
-1.991883946685852E-3 0
-5.755810785945721E-4 0
3.9134299334485905E-3 0
-1.453475679265205E-3 0
-1.5338771404971648E-3 0
-3.979360111933013E-4 0
2.358653181560421E-3 0
1.6048915226813992E-3 0
1.5826420858166454E-3 0
2.306222669632703E-3 0
-2.54756493901586E-4 0
-1.2353625554793505E-3 0
-1.2987568048612528E-3 0
4.1216859576466165E-3 0
-5.064319127173717E-4 0
-1.861899083548321E-3 0
-9.489599616695469E-4 0
-1.4108222688198296E-3 0
2.1113627081646168E-4 0
3.8606440352550574E-3 0
-4.023775618541002E-3 0
2.8081741270333726E-3 0
-4.185070094626995E-3 0
2.194008071998097E-3 0
-7.504216347265113E-3 0
3.7908472508347184E-3 0
-1.3583281342454071E-3 0
-2.7072282160452035E-4 0
-1.2953649383842716E-2 0
-4.547565236179356E-3 0
8.711782039032253E-3 0
-5.86093512274742E-3 0
8.649318080548469E-3 0
8.263132326410962E-3 0
-5.262534234363143E-3 0
9.176416020537502E-3 0
-3.7690755658108875E-3 0
-1.2590963343793364E-2 0
4.607507074761089E-4 0
-1.708966017912153E-3 0
4.753613646254135E-3 0
-8.562001763003075E-3 0
3.3741054939930145E-3 0
-4.8987473911021005E-3 0
2.007111678858611E-4 0
-1.6199149036728966E-3 0
4.8506952771455275E-1 0
-1.663263861968494E-3 0
6.641575839022613E-5 0
-1.4798582625935417E-3 0
-1.125551022200579E-3 0
-2.092045377033393E-3 0
-7.142010201302192E-4 0
3.763663577568409E-3 0
-1.5766562037343443E-3 0
-1.3614632803463254E-3 0
-2.349949591768118E-4 0
2.135774783683811E-3 0
1.4260661260266554E-3 0
1.5983191481333447E-3 0
2.2831212021691472E-3 0
-2.5219559118932154E-4 0
-1.184000114672907E-3 0
-1.308364394740801E-3 0
4.204837104146055E-3 0
-5.325036370957774E-4 0
-1.792964422543329E-3 0
-9.788928427221792E-4 0
-1.4246048973126726E-3 0
-5.727583704887817E-3 0
2.8075773983363837E-3 0
-4.046200341926306E-3 0
2.777003777010934E-3 0
-4.23093077543127E-3 0
2.1203893564128596E-3 0
-7.629094793879575E-3 0
3.5854712522998674E-3 0
-1.7031271369636156E-3 0
-7.590672499700787E-4 0
-1.3794389343387647E-2 0
-5.1168453826779415E-3 0
9.162919870362888E-3 0
-5.892967949283147E-3 0
8.686920037906666E-3 0
8.895280754535067E-3 0
-5.131568899917145E-3 0
9.144444997468838E-3 0
-3.797509347734983E-3 0
-1.2625925861105291E-2 0
5.315739637670592E-4 0
-1.8202772251976816E-3 0
4.95871315960159E-3 0
-8.556719155630403E-3 0
2.908899411605079E-3 0
-1.8813684493437918E-3 0
1.169325508791949E-4 0
-1.6632638619684917E-3 0
4.850195432721299E-1 0
-1.721421052236065E-3 0
-4.6957562360276066E-6 0
-1.5729886264651692E-3 0
-1.2497259808273427E-3 0
-2.254789475323143E-3 0
-8.766443025549162E-4 0
3.6410958804467064E-3 0
-1.4957534921353952E-3 0
-1.4456012680070284E-3 0
-4.7278818439712385E-4 0
2.134389490586385E-3 0
1.6426648087302883E-3 0
1.605068279867312E-3 0
2.306798364953381E-3 0
-2.8332438165780985E-4 0
-1.1291367188866592E-3 0
-1.3536800677424118E-3 0
4.305618731808898E-3 0
-5.959338436631259E-4 0
-1.76300378615403E-3 0
-1.0468193551169721E-3 0
3.0390511250621755E-3 0
-4.187025934138237E-3 0
2.774954019032462E-3 0
-4.087985336279654E-3 0
2.7202408937370944E-3 0
-4.315490039582444E-3 0
1.9876622595836023E-3 0
-7.828767175241237E-3 0
3.287624811458378E-3 0
-2.054785663679485E-3 0
-1.1685028650208899E-3 0
-1.3560640095340934E-2 0
-4.998763099879983E-3 0
9.008908011230138E-3 0
-5.41207855074644E-3 0
8.498302733432305E-3 0
8.316221001845812E-3 0
-5.418338794550788E-3 0
9.008689956108994E-3 0
-3.9042935678280178E-3 0
-1.2662840128737633E-2 0
5.46026903635321E-4 0
-1.878643685941338E-3 0
4.797271242260179E-3 0
-8.25758268706232E-3 0
-1.3592631148716713E-3 0
-1.4201016667190684E-3 0
6.641575839021885E-5 0
-1.7214210522360947E-3 0
4.849504094217345E-1 0
-1.808149435791693E-3 0
-1.1843723527728135E-4 0
-1.7191887556446829E-3 0
-1.4272092852359287E-3 0
-2.4212056179917147E-3 0
-9.680539173374325E-4 0
3.7306423120309277E-3 0
-1.516118746756421E-3 0
-1.4965885424848607E-3 0
-2.6858581863838343E-4 0
2.3382444973482934E-3 0
1.686121780422671E-3 0
1.5853221325696227E-3 0
2.307108851868937E-3 0
-3.181137484034308E-4 0
-1.0659808697891487E-3 0
-1.4427643570549462E-3 0
4.434045518486718E-3 0
-7.132401250667909E-4 0
-1.8726677812943829E-3 0
-1.0138480599320987E-2 0
2.1904599789191403E-3 0
-4.235310421012416E-3 0
2.718072819183752E-3 0
-4.155740193257534E-3 0
2.6330694361335243E-3 0
-4.4354250835694055E-3 0
1.8263326151449098E-3 0
-8.035201249824181E-3 0
3.092574094927088E-3 0
-2.2210068133057623E-3 0
-1.0692696152875612E-3 0
-1.4187171382388692E-2 0
-5.088844004243886E-3 0
8.687900634894982E-3 0
-5.48060022020089E-3 0
8.070024470524746E-3 0
8.07369898535873E-3 0
-5.684166133732565E-3 0
8.956545804434333E-3 0
-4.003634964444363E-3 0
-1.2663407446183467E-2 0
5.415574679553794E-4 0
-1.6388041887156687E-3 0
4.374970883729977E-3 0
-2.663584894719147E-3 0
-1.050030774531544E-3 0
-1.4798582625935217E-3 0
-4.6957562360097714E-6 0
-1.8081494357917098E-3 0
4.848403288983277E-1 0
-1.950642096638344E-3 0
-2.937412206539185E-4 0
-1.909583824345665E-3 0
-1.5749939001610724E-3 0
-2.435179347875246E-3 0
-8.285590017050225E-4 0
4.0677686452653275E-3 0
-1.4373237077705153E-3 0
-1.2664902334265796E-3 0
-1.2287143915468162E-4 0
2.369928380114494E-3 0
1.6802283947214495E-3 0
1.5629155309506793E-3 0
2.3135633457776242E-3 0
-3.4284034250570063E-4 0
-1.018747326328981E-3 0
-1.5571129581279394E-3 0
4.527146477722075E-3 0
-6.957116299993357E-4 0
5.399766843697352E-3 0
-7.508529099323543E-3 0
2.1155655402249293E-3 0
-4.316482265382072E-3 0
2.6360642576597005E-3 0
-4.239082737851069E-3 0
2.5440274674003267E-3 0
-4.531027305982282E-3 0
1.7253124830476428E-3 0
-8.116561094148884E-3 0
3.0069294764429977E-3 0
-2.218853302794862E-3 0
-1.0985780164528296E-3 0
-1.4125377049921747E-2 0
-4.525283475426347E-3 0
8.828068315669358E-3 0
-5.62888296895251E-3 0
7.799954579652447E-3 0
7.938488221545198E-3 0
-5.883301298190971E-3 0
8.99061399135866E-3 0
-4.057921367321454E-3 0
-1.2687819061635788E-2 0
5.623607343434374E-4 0
-1.4468615711873728E-3 0
-7.018912251957541E-4 0
-1.991883946685838E-3 0
-1.1255510222005982E-3 0
-1.5729886264651707E-3 0
-1.184372352772683E-4 0
-1.950642096638347E-3 0
4.846571779669666E-1 0
-2.17739055367722E-3 0
-5.40364910683996E-4 0
-2.1178827735198994E-3 0
-1.6786329391314297E-3 0
-2.4839476426323386E-3 0
-8.908602322185507E-4 0
4.172240470478691E-3 0
-1.1678559476116224E-3 0
-1.0571604058432224E-3 0
2.7217117470430912E-5 0
2.4378188848298704E-3 0
1.6990517944265617E-3 0
1.5739794030776748E-3 0
2.301224205513641E-3 0
-3.149215039199365E-4 0
-1.0593359968013912E-3 0
-1.4526424717181735E-3 0
4.410187939603953E-3 0
-1.6228997346302012E-3 0
3.7892196507520416E-3 0
-7.628548271760148E-3 0
1.9950449402527585E-3 0
-4.42033594944743E-3 0
2.5598781110184846E-3 0
-4.280378089170698E-3 0
2.543254307012826E-3 0
-4.4810606931817935E-3 0
1.8444469353167314E-3 0
-7.77571144776521E-3 0
3.3659618168331283E-3 0
-2.132794671033402E-3 0
-7.997165724724876E-4 0
-1.3250404147192496E-2 0
-4.643852041949975E-3 0
8.60107210431492E-3 0
-5.847945623144331E-3 0
7.56996565592748E-3 0
7.935516879768553E-3 0
-6.056425981085141E-3 0
9.244277224577508E-3 0
-4.136779043134046E-3 0
-1.2625817980918028E-2 0
3.203879596173304E-4 0
5.5297942577150865E-3 0
-5.75581078594586E-4 0
-2.0920453770333853E-3 0
-1.2497259808273461E-3 0
-1.7191887556446868E-3 0
-2.9374122065389964E-4 0
-2.1773905536772204E-3 0
4.8435551089502E-1 0
-2.552930699398238E-3 0
-9.443107186355041E-4 0
-2.5718736385507463E-3 0
-2.034521610903276E-3 0
-2.716550265284445E-3 0
-7.625476081246894E-4 0
4.326040448838699E-3 0
-7.072243044805168E-4 0
-7.279748516986708E-4 0
1.9734894082943218E-4 0
2.4969410256966175E-3 0
1.6913968276997592E-3 0
1.5805498601454949E-3 0
2.284990074526101E-3 0
-2.571729473390195E-4 0
-1.220386528059268E-3 0
-1.3297494397145216E-3 0
1.8931490423529327E-5 0
-1.3498585668082661E-3 0
3.601936062605589E-3 0
-7.804162440382738E-3 0
1.8607512450338599E-3 0
-4.4877582509318115E-3 0
2.5803266265621142E-3 0
-4.170758507340095E-3 0
2.7439218122809065E-3 0
-4.195923946934807E-3 0
2.2280298790307404E-3 0
-7.739689276541746E-3 0
3.4094141479871693E-3 0
-1.9758248497740347E-3 0
-7.797947149628854E-4 0
-1.3311763105394812E-2 0
-4.692150804728356E-3 0
8.408105152950665E-3 0
-5.969574532153574E-3 0
7.471991172760055E-3 0
8.16059350500969E-3 0
-6.309200760344808E-3 0
9.863712969932036E-3 0
-4.666524925597029E-3 0
-1.2766617125963609E-2 0
-1.788694759422846E-3 0
3.9134299334486E-3 0
-7.142010201302182E-4 0
-2.254789475323136E-3 0
-1.4272092852359256E-3 0
-1.9095838243456736E-3 0
-5.403649106839996E-4 0
-2.5529306993982296E-3 0
4.8381246983974746E-1 0
-3.199148509077812E-3 0
-1.6228594345763477E-3 0
-2.8784477442602317E-3 0
-2.0608153760096793E-3 0
-2.4999864347671854E-3 0
-1.6443065672278734E-4 0
4.925152805984622E-3 0
-3.682594535671881E-4 0
-5.383564797557392E-4 0
1.8741384102198433E-4 0
2.453379687738578E-3 0
1.664751695253395E-3 0
1.5875345915165144E-3 0
2.3288708226287085E-3 0
-2.823533775442916E-4 0
-1.3013874907106709E-3 0
-1.715588759368489E-2 0
-2.379247512999235E-4 0
-1.6496509027971351E-3 0
3.3388328912565776E-3 0
-7.991474268764646E-3 0
1.7889464681474236E-3 0
-4.3880818091577775E-3 0
2.8168302084950483E-3 0
-3.909104255204737E-3 0
2.944197759240397E-3 0
-4.143108764970952E-3 0
1.9429183646966954E-3 0
-8.452676080328321E-3 0
3.343669128740422E-3 0
-2.0229755379785226E-3 0
-8.343734617884769E-4 0
-1.3239250282027706E-2 0
-4.808769250505248E-3 0
8.386058511327513E-3 0
-5.972804402386027E-3 0
7.6083270177656525E-3 0
8.509694137801532E-3 0
-6.5308816207764395E-3 0
1.048065419260311E-2 0
-4.803613230767957E-3 0
-1.8256603022553887E-3 0
-1.4534756792652103E-3 0
3.763663577568406E-3 0
-8.766443025549192E-4 0
-2.421205617991715E-3 0
-1.5749939001610713E-3 0
-2.117882773519905E-3 0
-9.443107186355E-4 0
-3.1991485090778204E-3 0
4.83043833939695E-1 0
-3.8185815827021055E-3 0
-1.7089518628463163E-3 0
-2.8356151458114134E-3 0
-1.8424154537937964E-3 0
-1.785594469681748E-3 0
4.5655587675235315E-4 0
5.201218627784681E-3 0
-3.8191099432687464E-4 0
-7.014588286518346E-4 0
-9.434704605868883E-6 0
2.409954117092393E-3 0
1.6585618449824595E-3 0
1.5833206727174328E-3 0
2.3565803723897953E-3 0
-3.0751100372845505E-4 0
-5.638323786774298E-3 0
-1.289584891149878E-2 0
-6.596257735731394E-4 0
-1.979951719687785E-3 0
3.1104909923733875E-3 0
-8.070591699071195E-3 0
1.9850486435248555E-3 0
-4.054489393835901E-3 0
2.9650440210988106E-3 0
-4.025198856627452E-3 0
2.6822933879496087E-3 0
-4.449969398602052E-3 0
1.7366422507865155E-3 0
-8.816918118971007E-3 0
2.9213213832056874E-3 0
-1.9662941017997604E-3 0
-7.409979546801317E-4 0
-1.3205112232004539E-2 0
-4.9617417935133995E-3 0
8.64856276479379E-3 0
-5.854471159045761E-3 0
8.079498708094155E-3 0
8.661375271202127E-3 0
-6.075183182214376E-3 0
1.0148443173273361E-2 0
-4.295512435688842E-4 0
-1.5338771404971613E-3 0
-1.5766562037343426E-3 0
3.6410958804466995E-3 0
-9.680539173374411E-4 0
-2.4351793478752503E-3 0
-1.678632939131425E-3 0
-2.571873638550754E-3 0
-1.6228594345763549E-3 0
-3.8185815827020742E-3 0
4.8225401852566074E-1 0
-4.257819915380543E-3 0
-1.8088838237059748E-3 0
-2.7912624019574843E-3 0
-8.963736620856619E-4 0
-8.883174228758111E-4 0
4.4502479102079533E-4 0
4.952095473444573E-3 0
-7.517817221288402E-4 0
-9.94055490362613E-4 0
-2.0357813564594613E-4 0
2.4297676481186926E-3 0
1.5611181692378297E-3 0
1.645556680292328E-3 0
2.414579823988376E-3 0
1.2252962208036301E-2 0
-4.508675568592688E-3 0
-1.3654018604234278E-2 0
-1.0553099258791866E-3 0
-2.3000210100060908E-3 0
2.9301073059831016E-3 0
-7.587543387100316E-3 0
2.4151322238371697E-3 0
-4.260963595224878E-3 0
2.3901105684324643E-3 0
-4.392690879011923E-3 0
2.705789807400107E-3 0
-4.8970267831554655E-3 0
1.0494989070093266E-3 0
-8.737421719638535E-3 0
3.1263865035833813E-3 0
-1.65477172095958E-3 0
-7.822001977443959E-4 0
-1.3354292882935598E-2 0
-5.091839856079307E-3 0
9.305009738850937E-3 0
-5.912213261422663E-3 0
8.773894220736779E-3 0
8.718488879478887E-3 0
-5.686692814767152E-3 0
3.0267396115127142E-3 0
-3.97936011193309E-4 0
-1.361463280346332E-3 0
-1.495753492135401E-3 0
3.7306423120309308E-3 0
-8.285590017050234E-4 0
-2.483947642632348E-3 0
-2.0345216109032734E-3 0
-2.878447744260231E-3 0
-1.7089518628463456E-3 0
-4.257819915380517E-3 0
4.821578693713012E-1 0
-4.469458429642496E-3 0
-2.1541585844034564E-3 0
-2.1972193960763577E-3 0
-9.023993852439696E-4 0
-1.768143347498698E-3 0
-1.9821890515810294E-4 0
4.3802529198871745E-3 0
-1.2456923478266879E-3 0
-1.1624302198133861E-3 0
-3.9823042953694753E-4 0
2.27962251479006E-3 0
1.303480405156169E-3 0
1.7196032826924008E-3 0
-7.5477413523638405E-3 0
8.645676451092071E-3 0
-5.0981028337681415E-3 0
-1.3498275821347364E-2 0
-1.1605275293648486E-3 0
-2.356655120866623E-3 0
3.4719197394333283E-3 0
-7.721828509629068E-3 0
1.6100226829399364E-3 0
-5.003510043930724E-3 0
1.8960076939400171E-3 0
-4.6053247524610545E-3 0
2.349276043821079E-3 0
-5.648575589699766E-3 0
1.1897776294381723E-3 0
-7.928597179421052E-3 0
3.471019598686925E-3 0
-1.666885067175884E-3 0
-8.727015273472758E-4 0
-1.3168595407543256E-2 0
-4.788431053052478E-3 0
9.498816551708991E-3 0
-6.536204246671875E-3 0
9.734072130874296E-3 0
8.304112206279845E-3 0
2.44704500502414E-3 0
2.3586531815604213E-3 0
-2.3499495917681044E-4 0
-1.4456012680070223E-3 0
-1.5161187467564166E-3 0
4.0677686452653275E-3 0
-8.908602322185487E-4 0
-2.7165502652844423E-3 0
-2.0608153760096727E-3 0
-2.8356151458114147E-3 0
-1.8088838237059742E-3 0
-4.469458429642491E-3 0
4.7986323054083796E-1 0
-5.2133130031091586E-3 0
-2.155907322362748E-3 0
-2.7833219541354847E-3 0
-1.8621831996414543E-3 0
-2.462486907416245E-3 0
-8.237411985727366E-4 0
4.262530667024281E-3 0
-1.560705037497503E-3 0
-1.341361064372337E-3 0
-6.585931845703864E-4 0
2.3128672696052168E-3 0
1.6114311216669163E-3 0
1.1935886907270432E-2 0
-5.935998674550524E-3 0
9.100228307997272E-3 0
-5.007018984534703E-3 0
-1.420522988669588E-2 0
-1.1522260334367494E-3 0
-2.1349307223934473E-3 0
3.32124067326651E-3 0
-8.679309312069968E-3 0
1.4309507001026508E-3 0
-5.584039831420349E-3 0
1.8586087170176784E-3 0
-5.583998071980179E-3 0
1.9285960902450023E-3 0
-5.161001746598071E-3 0
1.7505584542313484E-3 0
-8.544172542083396E-3 0
3.623011462829134E-3 0
-1.9433965092070411E-3 0
-7.867448396747951E-4 0
-1.3929813094111365E-2 0
-5.5276858208396186E-3 0
1.0018773725539998E-2 0
-7.140825116481942E-3 0
9.868939658246681E-3 0
2.4470450050243136E-3 0
1.6048915226813938E-3 0
2.135774783683807E-3 0
-4.72788184397125E-4 0
-1.496588542484866E-3 0
-1.4373237077705161E-3 0
4.17224047047869E-3 0
-7.625476081246876E-4 0
-2.499986434767184E-3 0
-1.8424154537937934E-3 0
-2.791262401957484E-3 0
-2.1541585844034555E-3 0
-5.213313003109162E-3 0
4.7986323054083796E-1 0
-4.468013886499141E-3 0
-1.815443022238523E-3 0
-2.8190421533914683E-3 0
-2.0934346700738756E-3 0
-2.6601008405205077E-3 0
-9.803555856241913E-4 0
4.197732058172905E-3 0
-1.6830300177573642E-3 0
-1.2534838058445485E-3 0
-4.0759412592931233E-4 0
2.5617502014772314E-3 0
1.1935886907270429E-2 0
8.724381632351522E-3 0
-5.830276386917483E-3 0
9.017163895884807E-3 0
-5.07078549993666E-3 0
-1.4071729032937845E-2 0
-7.975805211124455E-4 0
-1.8876513750533798E-3 0
3.5703023604820596E-3 0
-8.511226568287159E-3 0
1.7365119552741981E-3 0
-5.157908262896376E-3 0
1.928596090244988E-3 0
-5.583998071980138E-3 0
1.864794328159362E-3 0
-5.612126670993272E-3 0
1.4998092531290847E-3 0
-8.804786739543208E-3 0
3.510397808001027E-3 0
-2.378227759718698E-3 0
-9.056129667560472E-4 0
-1.4341562981162072E-2 0
-5.271212070232176E-3 0
9.792950446960458E-3 0
-6.6852106573338805E-3 0
3.027913142708323E-3 0
1.5826420858166433E-3 0
1.4260661260266578E-3 0
2.1343894905863875E-3 0
-2.6858581863838023E-4 0
-1.2664902334265772E-3 0
-1.1678559476116213E-3 0
4.326040448838699E-3 0
-1.6443065672279425E-4 0
-1.785594469681758E-3 0
-8.963736620856621E-4 0
-2.1972193960763434E-3 0
-2.1559073223627492E-3 0
-4.468013886499149E-3 0
4.8215587314258257E-1 0
-4.252326309733976E-3 0
-1.7219697943303598E-3 0
-2.8521383544892562E-3 0
-2.0828787454133134E-3 0
-2.4007552586612266E-3 0
-9.621049022873056E-4 0
3.921974533330683E-3 0
-1.7115265165033196E-3 0
-1.201711755581118E-3 0
-4.7655852524455225E-4 0
-7.53777824606813E-3 0
8.329238275301376E-3 0
8.66817986578784E-3 0
-5.47444077458737E-3 0
8.779156442420033E-3 0
-4.387484299006969E-3 0
-1.3356359488956698E-2 0
-7.976522132418666E-4 0
-1.6900803670778326E-3 0
3.4748590649284266E-3 0
-7.92764562273425E-3 0
1.1897775491128781E-3 0
-5.651665043279562E-3 0
2.355457624840855E-3 0
-4.620792063100324E-3 0
1.9395057399892164E-3 0
-5.099124433066966E-3 0
1.7824876362200353E-3 0
-7.994828819945085E-3 0
3.8672229890529025E-3 0
-2.8887909142608996E-3 0
-5.092831058175869E-4 0
-1.4102640275610293E-2 0
-4.776060686222318E-3 0
9.037947915734899E-3 0
-4.348798653771878E-4 0
2.306222669632706E-3 0
1.5983191481333452E-3 0
1.6426648087302957E-3 0
2.338244497348294E-3 0
-1.22871439154684E-4 0
-1.0571604058432276E-3 0
-7.072243044805201E-4 0
4.925152805984622E-3 0
4.5655587675235505E-4 0
-8.88317422875809E-4 0
-9.02399385243973E-4 0
-2.783321954135489E-3 0
-1.815443022238521E-3 0
-4.252326309733986E-3 0
4.822452868617828E-1 0
-3.8013833360299003E-3 0
-1.6553148336791892E-3 0
-2.5157451379696737E-3 0
-1.7701693602985736E-3 0
-2.2876380545661643E-3 0
-1.1982720773102966E-3 0
3.968998210447903E-3 0
-1.9104944709927376E-3 0
-1.4628988117206736E-3 0
1.2207722996943622E-2 0
-5.301425540907266E-3 0
8.754899223150857E-3 0
8.38510048521678E-3 0
-5.401576458334615E-3 0
8.904902481009684E-3 0
-4.832031821348004E-3 0
-1.3498880291999095E-2 0
-7.165163119040116E-4 0
-1.6740978255162667E-3 0
3.1264138227980595E-3 0
-8.738378928150254E-3 0
1.063527106499409E-3 0
-4.9250953232613135E-3 0
2.7492814721625973E-3 0
-4.468782147009148E-3 0
2.5233326400505E-3 0
-4.479693260783348E-3 0
2.7499253844982022E-3 0
-8.072945170797046E-3 0
3.6140748001086335E-3 0
-3.2240263224142286E-3 0
1.6907641343135785E-4 0
-1.4921881411888736E-2 0
-4.134296155545686E-3 0
-1.8129893961089283E-3 0
-2.547564939015888E-4 0
2.283121202169149E-3 0
1.6050682798673184E-3 0
1.6861217804226768E-3 0
2.369928380114491E-3 0
2.72171174704329E-5 0
-7.279748516986688E-4 0
-3.6825945356717987E-4 0
5.201218627784679E-3 0
4.450247910207948E-4 0
-1.7681433474986948E-3 0
-1.8621831996414571E-3 0
-2.8190421533914674E-3 0
-1.7219697943303596E-3 0
-3.8013833360299224E-3 0
4.8301405078697507E-1 0
-3.147587093251142E-3 0
-1.023712942694815E-3 0
-2.0088363381288647E-3 0
-1.7191233590886919E-3 0
-2.2238882186978296E-3 0
-1.1919751928614756E-3 0
4.156691191441204E-3 0
-1.7379004696903445E-3 0
-5.524830146627532E-3 0
9.118619568756765E-3 0
-5.230984177400244E-3 0
8.241409637735203E-3 0
8.05208442755841E-3 0
-5.674881375255472E-3 0
8.460498831645296E-3 0
-4.833549386699107E-3 0
-1.3260102188992042E-2 0
-7.410302828763647E-4 0
-1.9470208636275248E-3 0
2.917474583351886E-3 0
-8.849822955842178E-3 0
1.8054596668878784E-3 0
-4.545582381343836E-3 0
2.8155952395120354E-3 0
-4.217078276164658E-3 0
3.244415196225195E-3 0
-4.451864255552946E-3 0
2.531915825303768E-3 0
-8.804962620564998E-3 0
4.0485284115702935E-3 0
-3.1346746748323684E-3 0
4.7930005492505647E-4 0
-1.4170928177492615E-2 0
-1.8098534033471733E-3 0
-1.2353625554793505E-3 0
-2.5219559118932696E-4 0
2.3067983649533797E-3 0
1.585322132569625E-3 0
1.680228394721454E-3 0
2.437818884829867E-3 0
1.9734894082943866E-4 0
-5.383564797557301E-4 0
-3.8191099432688104E-4 0
4.952095473444569E-3 0
-1.982189051580873E-4 0
-2.462486907416247E-3 0
-2.0934346700738795E-3 0
-2.852138354489264E-3 0
-1.6553148336791819E-3 0
-3.14758709325115E-3 0
4.83727168524585E-1 0
-2.4267458548448205E-3 0
-6.989370416706135E-4 0
-1.7415236161048334E-3 0
-1.5828597379238536E-3 0
-2.0964866546573026E-3 0
-8.779022199935631E-4 0
4.211196109033654E-3 0
-1.7375399176698086E-2 0
-3.801880974598127E-3 0
9.090922298379055E-3 0
-5.469586828628126E-3 0
8.03001268361569E-3 0
7.7363715151537345E-3 0
-5.9409748766744465E-3 0
8.335133250208791E-3 0
-4.808759168997559E-3 0
-1.318421031751064E-2 0
-8.999373821258905E-4 0
-1.9997557040651853E-3 0
3.3963215834620537E-3 0
-8.578096860176113E-3 0
2.1153577622936293E-3 0
-4.3619537569545355E-3 0
3.223507636953138E-3 0
-4.279692980963607E-3 0
3.311581702146971E-3 0
-5.040746575420911E-3 0
2.64493484703267E-3 0
-9.069418228983937E-3 0
4.570482404364114E-3 0
-2.7399021291013444E-3 0
3.1594299895925054E-4 0
5.555997135792129E-3 0
-1.2987568048612567E-3 0
-1.1840001146729059E-3 0
-2.8332438165780795E-4 0
2.3071088518689335E-3 0
1.5629155309506764E-3 0
1.6990517944265586E-3 0
2.4969410256966166E-3 0
1.8741384102198837E-4 0
-7.01458828651838E-4 0
-7.517817221288412E-4 0
4.380252919887176E-3 0
-8.237411985727392E-4 0
-2.660100840520508E-3 0
-2.0828787454133173E-3 0
-2.5157451379696737E-3 0
-1.023712942694811E-3 0
-2.4267458548448057E-3 0
4.841631957543603E-1 0
-1.9234333728905134E-3 0
-5.709651433332442E-4 0
-1.474930027483908E-3 0
-1.396626106258288E-3 0
-2.0595323267176943E-3 0
-6.013462427077001E-4 0
3.910611657025858E-4 0
-1.2599421735019718E-2 0
-3.8139069686512327E-3 0
8.98414279059038E-3 0
-5.718642450395652E-3 0
7.89514713980502E-3 0
7.53296606642693E-3 0
-5.969483623560917E-3 0
8.45895199315447E-3 0
-4.82038204044064E-3 0
-1.3167350159529837E-2 0
-8.549091418677498E-4 0
-2.031526524215561E-3 0
3.598527823009546E-3 0
-8.012617936674796E-3 0
2.562967818767345E-3 0
-4.593188036057115E-3 0
3.2386247104410127E-3 0
-4.798554036695565E-3 0
3.374996038322501E-3 0
-5.514780831452972E-3 0
3.178417526263132E-3 0
-9.420586851534964E-3 0
5.178892964280006E-3 0
-2.3089218012131733E-3 0
-7.227708730963041E-4 0
4.121685957646619E-3 0
-1.308364394740802E-3 0
-1.1291367188866613E-3 0
-3.181137484034289E-4 0
2.3135633457776234E-3 0
1.5739794030776692E-3 0
1.6913968276997548E-3 0
2.45337968773858E-3 0
-9.434704605867635E-6 0
-9.94055490362615E-4 0
-1.2456923478266866E-3 0
4.2625306670242835E-3 0
-9.803555856241933E-4 0
-2.4007552586612227E-3 0
-1.770169360298576E-3 0
-2.0088363381288573E-3 0
-6.989370416706112E-4 0
-1.9234333728905069E-3 0
4.8428610719116216E-1 0
-1.4913544572739414E-3 0
-5.949544337133685E-4 0
-1.1867220582103205E-3 0
-1.3362324086316699E-3 0
-2.0435135218685595E-3 0
-2.2077042789946278E-3 0
4.6236340111814947E-4 0
-1.2626555574949445E-2 0
-3.9117473166702145E-3 0
8.941525430331191E-3 0
-5.899066431643149E-3 0
7.935426777217926E-3 0
7.5089532159709465E-3 0
-5.8798058355329155E-3 0
8.789241996105224E-3 0
-4.903535625935806E-3 0
-1.3062550375019E-2 0
-7.888850171481067E-4 0
-2.376087582245382E-3 0
3.761180535883964E-3 0
-8.26126111295048E-3 0
2.391265013062712E-3 0
-5.13379548184342E-3 0
3.33810668834239E-3 0
-5.23277380901239E-3 0
3.7327362854338826E-3 0
-5.887574161969506E-3 0
3.826071135444651E-3 0
-9.507892741940041E-3 0
5.138738254077694E-3 0
-2.6680769629480626E-3 0
-5.064319127173704E-4 0
4.204837104146053E-3 0
-1.3536800677424123E-3 0
-1.065980869789156E-3 0
-3.4284034250570285E-4 0
2.3012242055136414E-3 0
1.5805498601454914E-3 0
1.664751695253396E-3 0
2.409954117092391E-3 0
-2.0357813564594534E-4 0
-1.1624302198133833E-3 0
-1.5607050374975028E-3 0
4.197732058172905E-3 0
-9.621049022873022E-4 0
-2.287638054566168E-3 0
-1.7191233590886747E-3 0
-1.7415236161048464E-3 0
-5.709651433332418E-4 0
-1.4913544572739195E-3 0
4.841908609062894E-1 0
-1.025724394356807E-3 0
-7.517426951064261E-4 0
-9.972032340003856E-4 0
-1.2462830955020274E-3 0
6.274167563711776E-3 0
-1.7046354875935737E-3 0
5.364882246807918E-4 0
-1.2661770141281708E-2 0
-4.006698212168691E-3 0
8.990529450988136E-3 0
-6.040476184125525E-3 0
8.203975528242513E-3 0
7.671925975085157E-3 0
-5.8085754959084366E-3 0
9.228217779288471E-3 0
-4.9261495856319695E-3 0
-1.3983432867753267E-2 0
-8.519931931141348E-4 0
-2.7510750173379214E-3 0
3.6908787273263366E-3 0
-8.850887228857494E-3 0
2.581386693239983E-3 0
-5.5582347211997635E-3 0
3.716871852408154E-3 0
-5.595851712183783E-3 0
4.2506352928794525E-3 0
-6.238231990561533E-3 0
4.0476433649516246E-3 0
-9.197659039310798E-3 0
-1.3037595308278706E-3 0
-1.8618990835483254E-3 0
-5.325036370957766E-4 0
4.305618731808897E-3 0
-1.442764357054951E-3 0
-1.0187473263289827E-3 0
-3.149215039199354E-4 0
2.284990074526101E-3 0
1.5875345915165088E-3 0
1.6585618449824612E-3 0
2.42976764811869E-3 0
-3.9823042953695013E-4 0
-1.3413610643723355E-3 0
-1.6830300177573703E-3 0
3.921974533330685E-3 0
-1.1982720773102936E-3 0
-2.223888218697827E-3 0
-1.5828597379238447E-3 0
-1.4749300274839274E-3 0
-5.949544337133476E-4 0
-1.0257243943568102E-3 0
4.8383102663446403E-1 0
-4.5436105440217273E-4 0
-8.70089373451745E-4 0
-1.207215059262598E-3 0
-1.1354906165098001E-2 0
4.75714276718725E-3 0
-1.8159847659986025E-3 0
5.481175091663127E-4 0
-1.2663354639823501E-2 0
-4.054862202424296E-3 0
9.259266740741406E-3 0
-6.274873358819767E-3 0
8.553508243148829E-3 0
8.09753406001264E-3 0
-5.991569577572726E-3 0
9.406925582877639E-3 0
-5.546020811192577E-3 0
-1.4323227990809113E-2 0
-4.173942579749506E-4 0
-3.1446603755472743E-3 0
4.030469755426763E-3 0
-9.113191375651388E-3 0
3.144032047738772E-3 0
-5.902494492573213E-3 0
4.247507398508E-3 0
-6.009780433689306E-3 0
4.854313717960908E-3 0
-6.344922751053376E-3 0
3.8037691691479025E-3 0
-2.0218618683971543E-3 0
-9.489599616695413E-4 0
-1.7929644225433282E-3 0
-5.959338436631212E-4 0
4.434045518486723E-3 0
-1.5571129581279446E-3 0
-1.0593359968013992E-3 0
-2.5717294733901546E-4 0
2.3288708226287037E-3 0
1.5833206727174315E-3 0
1.5611181692378301E-3 0
2.2796225147900633E-3 0
-6.585931845703851E-4 0
-1.25348380584455E-3 0
-1.7115265165033116E-3 0
3.968998210447904E-3 0
-1.1919751928614823E-3 0
-2.096486654657288E-3 0
-1.3966261062583008E-3 0
-1.1867220582103086E-3 0
-7.517426951064233E-4 0
-4.543610544021767E-4 0
4.831793499412768E-1 0
1.4043638859693888E-4 0
-5.93001825137063E-4 0
4.591190951207096E-3 0
-8.560026306329738E-3 0
4.960841859358122E-3 0
-1.8785628345181489E-3 0
5.393812687486306E-4 0
-1.2688818117294503E-2 0
-4.1292887214418395E-3 0
9.88834378499444E-3 0
-6.48002336279359E-3 0
8.735509481333326E-3 0
8.886713023503107E-3 0
-6.4729803687524215E-3 0
1.0011385308841403E-2 0
-5.263823653533577E-3 0
-1.4165862099664901E-2 0
5.6248284735726676E-5 0
-3.208786264798601E-3 0
4.519584123802808E-3 0
-9.445160013008864E-3 0
3.8185096922675648E-3 0
-6.237155243903066E-3 0
4.856412738940365E-3 0
-6.5307302739670324E-3 0
5.188495127861734E-3 0
-6.183880138652561E-3 0
3.917480868057351E-4 0
-1.4108222688198316E-3 0
-9.7889284272218E-4 0
-1.7630037861540331E-3 0
-7.132401250667967E-4 0
4.527146477722077E-3 0
-1.452642471718175E-3 0
-1.2203865280592668E-3 0
-2.823533775442939E-4 0
2.3565803723897953E-3 0
1.6455566802923312E-3 0
1.3034804051561633E-3 0
2.312867269605219E-3 0
-4.07594125929313E-4 0
-1.2017117555811147E-3 0
-1.9104944709927303E-3 0
4.1566911914412055E-3 0
-8.779022199935638E-4 0
-2.059532326717687E-3 0
-1.3362324086316777E-3 0
-9.97203234000382E-4 0
-8.700893734517518E-4 0
1.404363885969376E-4 0
4.8277835258911206E-1 0
-6.347210810121623E-4 0
-7.216270022513301E-3 0
3.37468456175934E-3 0
-8.556781662816119E-3 0
4.7951433622683785E-3 0
-1.6432263829841542E-3 0
5.57478837047055E-4 0
-1.262538028204057E-2 0
-4.65001156739366E-3 0
1.0534785946969884E-2 0
-5.974253715673072E-3 0
8.86085672088249E-3 0
9.75264991783053E-3 0
-7.204768742475252E-3 0
9.856894072953789E-3 0
-4.794636068605966E-3 0
-1.5064260171670956E-2 0
3.783970937891886E-4 0
-2.7940808932516823E-3 0
5.1624475899462886E-3 0
-9.508414640999819E-3 0
4.052616863589671E-3 0
-6.340588952287526E-3 0
5.190702761177542E-3 0
-6.413729082545546E-3 0
4.675330358981802E-3 0
-2.4237628580623715E-3 0
2.1113627081646778E-4 0
-1.4246048973126748E-3 0
-1.0468193551169752E-3 0
-1.872667781294386E-3 0
-6.957116299993341E-4 0
4.410187939603951E-3 0
-1.3297494397145227E-3 0
-1.3013874907106704E-3 0
-3.0751100372845396E-4 0
2.414579823988369E-3 0
1.7196032826924008E-3 0
1.6114311216669196E-3 0
2.5617502014772275E-3 0
-4.765585252445544E-4 0
-1.4628988117206712E-3 0
-1.737900469690342E-3 0
4.211196109033649E-3 0
-6.013462427076934E-4 0
-2.04351352186856E-3 0
-1.246283095502018E-3 0
-1.2072150592626104E-3 0
-5.930018251370505E-4 0
-6.347210810121754E-4 0
4.8291065845242304E-1 0
4.736232100301847E-3 0
-4.898739418145485E-3 0
2.908296746996564E-3 0
-8.25960731362281E-3 0
4.3712627278447505E-3 0
-1.4513650658523297E-3 0
3.187251192534811E-4 0
-1.2757729359262119E-2 0
-4.769429787399041E-3 0
1.0208453666731386E-2 0
-5.647133314897362E-3 0
8.23423604366106E-3 0
9.790472727149615E-3 0
-6.606743726236803E-3 0
9.10782443593054E-3 0
-4.173857279055217E-3 0
-1.4230934685275172E-2 0
2.817522675809584E-4 0
-2.31779843456012E-3 0
5.14038618737266E-3 0
-9.193137691177638E-3 0
3.8074581932454367E-3 0
-6.181835467960733E-3 0
4.6759146269329905E-3 0
-5.533000400583156E-3 0
-7.7740107477230445E-3 0
3.8606440352550553E-3 0
-5.727583704887818E-3 0
3.039051125062167E-3 0
-1.0138480599320987E-2 0
5.399766843697343E-3 0
-1.6228997346301993E-3 0
1.8931490423529927E-5 0
-1.7155887593684898E-2 0
-5.638323786774306E-3 0
1.2252962208036304E-2 0
-7.547741352363835E-3 0
1.1935886907270434E-2 0
1.193588690727043E-2 0
-7.537778246068126E-3 0
1.2207722996943629E-2 0
-5.52483014662754E-3 0
-1.7375399176698093E-2 0
3.910611657025915E-4 0
-2.2077042789946247E-3 0
6.274167563711774E-3 0
-1.1354906165097997E-2 0
4.591190951207094E-3 0
-7.216270022513297E-3 0
4.736232100301845E-3 0
6.622950474671946E-1 0
-7.005732016345161E-3 0
-5.291955698642053E-3 0
1.0127853296073524E-2 0
3.6076262155811125E-3 0
1.3915263158865213E-2 0
7.068905807646487E-3 0
-3.568499168860131E-2 0
1.4407786436737728E-2 0
8.675092038641053E-3 0
3.6817911621174477E-3 0
-1.640077492588949E-2 0
-9.090812477024895E-3 0
-9.090812477025095E-3 0
-1.6410625028370124E-2 0
3.726517259800691E-3 0
8.567918280851605E-3 0
1.4590905253666178E-2 0
-3.59261620288745E-2 0
7.304190147515239E-3 0
1.3806113665346252E-2 0
3.4466988114718743E-3 0
1.0645815824168499E-2 0
-5.951174792136296E-3 0
-7.06171766807903E-3 0
3.8606440352557713E-3 0
-4.023775618541014E-3 0
2.807577398336389E-3 0
-4.18702593413824E-3 0
2.190459978919122E-3 0
-7.508529099323516E-3 0
3.7892196507520364E-3 0
-1.3498585668082694E-3 0
-2.3792475129991907E-4 0
-1.2895848911498775E-2 0
-4.50867556859269E-3 0
8.645676451092073E-3 0
-5.935998674550528E-3 0
8.724381632351522E-3 0
8.329238275301383E-3 0
-5.301425540907266E-3 0
9.118619568756767E-3 0
-3.801880974598126E-3 0
-1.2599421735019718E-2 0
4.6236340111814985E-4 0
-1.7046354875935735E-3 0
4.757142767187247E-3 0
-8.560026306329729E-3 0
3.374684561759336E-3 0
-4.898739418145489E-3 0
-7.0057320163451516E-3 0
5.86153432489025E-1 0
-5.057507573170909E-3 0
-3.7338515049297792E-3 0
7.605098784883396E-3 0
2.9153579788729887E-3 0
1.0352306773117345E-2 0
5.38805925215262E-3 0
-2.5548133996558305E-2 0
1.1086055950511755E-2 0
7.2092975984462135E-3 0
3.1810651198747684E-3 0
-1.2644542002383756E-2 0
-5.820552115965295E-3 0
-5.845254411054157E-3 0
-1.2472510634533387E-2 0
2.5358497087293167E-3 0
5.867892500754336E-3 0
1.0642493729026219E-2 0
-2.6578670387304135E-2 0
5.2820196209985935E-3 0
9.662093886254325E-3 0
2.4131233231095045E-3 0
7.775940346692879E-3 0
-4.444092700831463E-3 0
-5.727583704888907E-3 0
2.808174127033398E-3 0
-4.046200341926299E-3 0
2.7749540190324384E-3 0
-4.235310421012408E-3 0
2.1155655402249293E-3 0
-7.628548271760146E-3 0
3.6019360626055965E-3 0
-1.6496509027971405E-3 0
-6.596257735731313E-4 0
-1.3654018604234281E-2 0
-5.098102833768143E-3 0
9.100228307997274E-3 0
-5.830276386917482E-3 0
8.668179865787844E-3 0
8.754899223150864E-3 0
-5.230984177400245E-3 0
9.090922298379062E-3 0
-3.813906968651232E-3 0
-1.2626555574949443E-2 0
5.364882246807899E-4 0
-1.8159847659986073E-3 0
4.960841859358123E-3 0
-8.556781662816126E-3 0
2.9082967469965643E-3 0
-5.2919556986420575E-3 0
-5.057507573170837E-3 0
5.863067356119898E-1 0
-4.864381013282367E-3 0
-3.504236097096618E-3 0
7.8739754308582E-3 0
3.2349247428110493E-3 0
1.073571348667154E-2 0
5.863624814328475E-3 0
-2.5049957966522405E-2 0
1.169159873711155E-2 0
7.009243599056419E-3 0
2.894333334930355E-3 0
-1.2242610218649407E-2 0
-5.563811769077484E-3 0
-5.7571249582247285E-3 0
-1.2203533090127219E-2 0
2.6704949424682365E-3 0
5.517577386283945E-3 0
1.079926162045523E-2 0
-2.7136849901034286E-2 0
5.603613289911112E-3 0
9.193026816444563E-3 0
2.6914711776256576E-3 0
7.7094262261498715E-3 0
3.0390511250631236E-3 0
-4.185070094627E-3 0
2.777003777010929E-3 0
-4.087985336279652E-3 0
2.718072819183742E-3 0
-4.3164822653820895E-3 0
1.9950449402527494E-3 0
-7.8041624403827215E-3 0
3.3388328912565663E-3 0
-1.979951719687776E-3 0
-1.0553099258791792E-3 0
-1.349827582134736E-2 0
-5.007018984534708E-3 0
9.017163895884814E-3 0
-5.474440774587377E-3 0
8.385100485216776E-3 0
8.241409637735205E-3 0
-5.469586828628124E-3 0
8.98414279059038E-3 0
-3.911747316670212E-3 0
-1.266177014128171E-2 0
5.481175091663082E-4 0
-1.8785628345181593E-3 0
4.795143362268383E-3 0
-8.259607313622814E-3 0
1.0127853296073516E-2 0
-3.733851504929766E-3 0
-4.8643810132823085E-3 0
5.865344266780829E-1 0
-4.601318532881756E-3 0
-3.1949338680182463E-3 0
8.251400340907098E-3 0
3.700385132492669E-3 0
1.1287957939757853E-2 0
6.382152123369912E-3 0
-2.4711647878028955E-2 0
1.1386944006779752E-2 0
7.163109623094166E-3 0
3.248469498077726E-3 0
-1.1680838704808825E-2 0
-5.5895026130597415E-3 0
-5.433315711516236E-3 0
-1.2402081359235501E-2 0
2.8139720133818187E-3 0
5.0939757345458E-3 0
1.1197108263737607E-2 0
-2.7861984441519813E-2 0
6.1791065902116315E-3 0
8.86401707040894E-3 0
2.9729585455062586E-3 0
-1.0138480599321579E-2 0
2.194008071998087E-3 0
-4.23093077543126E-3 0
2.7202408937371234E-3 0
-4.155740193257559E-3 0
2.636064257659685E-3 0
-4.420335949447429E-3 0
1.8607512450338588E-3 0
-7.991474268764653E-3 0
3.1104909923733875E-3 0
-2.3000210100060843E-3 0
-1.1605275293648477E-3 0
-1.4205229886695881E-2 0
-5.070785499936659E-3 0
8.779156442420031E-3 0
-5.401576458334612E-3 0
8.052084427558413E-3 0
8.0300126836157E-3 0
-5.718642450395657E-3 0
8.94152543033119E-3 0
-4.006698212168686E-3 0
-1.2663354639823501E-2 0
5.393812687486268E-4 0
-1.6432263829841511E-3 0
4.371262727844748E-3 0
3.607626215581115E-3 0
7.605098784883398E-3 0
-3.504236097096618E-3 0
-4.601318532881746E-3 0
5.868355835764324E-1 0
-4.24464776647772E-3 0
-2.753276014916384E-3 0
8.800434677618672E-3 0
4.361820225412242E-3 0
1.1965000565073934E-2 0
6.750200446494585E-3 0
-2.4817425705511778E-2 0
1.1806958309633069E-2 0
7.000500706345249E-3 0
2.6048647541747514E-3 0
-1.2232270001485314E-2 0
-6.020807277833478E-3 0
-5.480048868879721E-3 0
-1.2586930517305018E-2 0
3.0364513432351603E-3 0
4.629137957357634E-3 0
1.1875200039711873E-2 0
-2.881493939696676E-2 0
7.002739207385385E-3 0
9.470816856527115E-3 0
5.399766843697624E-3 0
-7.504216347265106E-3 0
2.1203893564128574E-3 0
-4.315490039582448E-3 0
2.6330694361335174E-3 0
-4.239082737851085E-3 0
2.5598781110185E-3 0
-4.487758250931834E-3 0
1.7889464681474312E-3 0
-8.070591699071207E-3 0
2.9301073059831047E-3 0
-2.35665512086662E-3 0
-1.1522260334367576E-3 0
-1.407172903293784E-2 0
-4.387484299006969E-3 0
8.904902481009683E-3 0
-5.674881375255468E-3 0
7.736371515153726E-3 0
7.895147139805022E-3 0
-5.899066431643155E-3 0
8.99052945098814E-3 0
-4.054862202424295E-3 0
-1.2688818117294503E-2 0
5.574788370470456E-4 0
-1.4513650658523225E-3 0
1.3915263158865222E-2 0
2.9153579788729765E-3 0
7.873975430858188E-3 0
-3.1949338680182576E-3 0
-4.2446477664777075E-3 0
5.872633081187033E-1 0
-3.7087564018549843E-3 0
-2.091939825883274E-3 0
9.564206189785705E-3 0
5.075739678152944E-3 0
1.2395210745253606E-2 0
6.674944028417904E-3 0
-2.6654306798295634E-2 0
1.1172571946185298E-2 0
5.732490192585787E-3 0
1.6088879762905877E-3 0
-1.2655086451407276E-2 0
-6.121707822455589E-3 0
-5.406680523396911E-3 0
-1.2671324091619338E-2 0
3.2287158256001426E-3 0
4.277852377932838E-3 0
1.2642368688142617E-2 0
-2.938903907075458E-2 0
6.6762725241132324E-3 0
-1.6228997346302684E-3 0
3.7908472508347193E-3 0
-7.629094793879568E-3 0
1.987662259583598E-3 0
-4.4354250835693994E-3 0
2.5440274674003315E-3 0
-4.280378089170699E-3 0
2.5803266265621095E-3 0
-4.3880818091577775E-3 0
1.985048643524861E-3 0
-7.587543387100321E-3 0
3.471919739433319E-3 0
-2.134930722393448E-3 0
-7.975805211124477E-4 0
-1.3356359488956707E-2 0
-4.832031821348005E-3 0
8.460498831645295E-3 0
-5.940974876674445E-3 0
7.532966066426939E-3 0
7.93542677721793E-3 0
-6.040476184125524E-3 0
9.259266740741406E-3 0
-4.129288721441845E-3 0
-1.2625380282040563E-2 0
3.187251192534821E-4 0
7.0689058076465E-3 0
1.035230677311735E-2 0
3.234924742811045E-3 0
8.251400340907107E-3 0
-2.753276014916397E-3 0
-3.708756401854998E-3 0
5.879478608774824E-1 0
-2.8447457305884917E-3 0
-1.1073621002488099E-3 0
1.0444499836969906E-2 0
5.526556404556179E-3 0
1.2260689157154989E-2 0
6.639236959685039E-3 0
-2.7119240409425985E-2 0
9.893252098122751E-3 0
5.086905826248662E-3 0
1.2474899625285962E-3 0
-1.2846310898348494E-2 0
-6.1545174846516885E-3 0
-5.454757209406037E-3 0
-1.2610815064501776E-2 0
3.088053664805804E-3 0
4.46746219410384E-3 0
1.1958967127795306E-2 0
-2.8526411272007342E-2 0
1.8931490423528223E-5 0
-1.3583281342454065E-3 0
3.585471252299874E-3 0
-7.82876717524123E-3 0
1.8263326151449076E-3 0
-4.531027305982285E-3 0
2.5432543070128565E-3 0
-4.170758507340092E-3 0
2.8168302084950404E-3 0
-4.054489393835898E-3 0
2.415132223837166E-3 0
-7.721828509629074E-3 0
3.3212406732665116E-3 0
-1.8876513750533755E-3 0
-7.976522132418733E-4 0
-1.3498880291999095E-2 0
-4.8335493866991045E-3 0
8.335133250208798E-3 0
-5.969483623560911E-3 0
7.508953215970954E-3 0
8.203975528242514E-3 0
-6.274873358819769E-3 0
9.88834378499444E-3 0
-4.650011567393657E-3 0
-1.2757729359262117E-2 0
-3.568499168860129E-2 0
5.388059252152624E-3 0
1.0735713486671544E-2 0
3.7003851324926584E-3 0
8.800434677618686E-3 0
-2.091939825883254E-3 0
-2.8447457305884527E-3 0
5.891259776734575E-1 0
-1.3438652631435504E-3 0
4.7800100464700666E-4 0
1.2150323259832762E-2 0
6.67444481931369E-3 0
1.3248160492107E-2 0
6.453779567777428E-3 0
-2.703324008435381E-2 0
8.152786659970967E-3 0
3.93848233045944E-3 0
6.731098884699815E-4 0
-1.3072856830624695E-2 0
-6.091961732736676E-3 0
-5.525431667473959E-3 0
-1.2474498794522195E-2 0
2.7726277064771183E-3 0
5.548394908108461E-3 0
1.1052417010378894E-2 0
-1.715588759368497E-2 0
-2.707228216045247E-4 0
-1.7031271369636238E-3 0
3.2876248114583726E-3 0
-8.03520124982417E-3 0
1.7253124830476493E-3 0
-4.481060693181808E-3 0
2.7439218122808934E-3 0
-3.9091042552047E-3 0
2.9650440210988E-3 0
-4.260963595224868E-3 0
1.610022682939928E-3 0
-8.679309312069963E-3 0
3.570302360482064E-3 0
-1.6900803670778235E-3 0
-7.165163119040205E-4 0
-1.3260102188992031E-2 0
-4.8087591689975505E-3 0
8.458951993154468E-3 0
-5.879805835532913E-3 0
7.6719259750851546E-3 0
8.55350824314883E-3 0
-6.480023362793593E-3 0
1.0534785946969879E-2 0
-4.769429787399032E-3 0
1.4407786436737716E-2 0
-2.554813399655831E-2 0
5.863624814328467E-3 0
1.128795793975786E-2 0
4.361820225412232E-3 0
9.564206189785691E-3 0
-1.1073621002488409E-3 0
-1.3438652631435296E-3 0
5.913458667930946E-1 0
1.3150665811185885E-3 0
3.231141472060171E-3 0
1.333144704415178E-2 0
6.793103373923334E-3 0
1.260907023612112E-2 0
3.871301275562352E-3 0
-2.9585267623492954E-2 0
6.723659568870751E-3 0
3.1068034825139108E-3 0
7.573068666494498E-4 0
-1.2983617504383397E-2 0
-5.979122156640669E-3 0
-5.528688300271431E-3 0
-1.2545852177148825E-2 0
2.900480643948861E-3 0
6.173889519265126E-3 0
-5.638323786774124E-3 0
-1.2953649383842705E-2 0
-7.590672499700696E-4 0
-2.054785663679478E-3 0
3.092574094927075E-3 0
-8.1165610941489E-3 0
1.8444469353167427E-3 0
-4.1959239469348E-3 0
2.9441977592403767E-3 0
-4.025198856627441E-3 0
2.390110568432463E-3 0
-5.003510043930725E-3 0
1.4309507001026565E-3 0
-8.511226568287157E-3 0
3.474859064928419E-3 0
-1.6740978255162674E-3 0
-7.410302828763718E-4 0
-1.3184210317510645E-2 0
-4.82038204044064E-3 0
8.789241996105215E-3 0
-5.808575495908432E-3 0
8.097534060012646E-3 0
8.73550948133332E-3 0
-5.9742537156730596E-3 0
1.0208453666731383E-2 0
8.67509203864104E-3 0
1.1086055950511743E-2 0
-2.50499579665224E-2 0
6.382152123369909E-3 0
1.1965000565073953E-2 0
5.075739678152958E-3 0
1.0444499836969918E-2 0
4.7800100464700265E-4 0
1.3150665811185824E-3 0
5.94695064791064E-1 0
3.844582410920313E-3 0
3.4249521480374176E-3 0
1.3300391373113772E-2 0
6.011462458438553E-3 0
9.622719239474239E-3 0
1.1569720303958976E-3 0
-3.1011394871016063E-2 0
6.83194123951121E-3 0
3.725595048151361E-3 0
1.5456249738022138E-3 0
-1.2986956434293557E-2 0
-5.770216223460901E-3 0
-5.352970633582476E-3 0
-1.2633507006521355E-2 0
2.8963004329648156E-3 0
1.225296220803614E-2 0
-4.547565236179371E-3 0
-1.3794389343387661E-2 0
-1.1685028650208979E-3 0
-2.221006813305759E-3 0
3.0069294764430024E-3 0
-7.77571144776521E-3 0
2.228029879030739E-3 0
-4.14310876497094E-3 0
2.682293387949598E-3 0
-4.392690879011908E-3 0
1.8960076939400373E-3 0
-5.584039831420351E-3 0
1.7365119552741996E-3 0
-7.927645622734236E-3 0
3.1264138227980656E-3 0
-1.9470208636275332E-3 0
-8.999373821258983E-4 0
-1.3167350159529842E-2 0
-4.903535625935799E-3 0
9.228217779288474E-3 0
-5.991569577572729E-3 0
8.886713023503108E-3 0
8.86085672088249E-3 0
-5.647133314897366E-3 0
3.681791162117448E-3 0
7.209297598446224E-3 0
1.169159873711155E-2 0
-2.471164787802896E-2 0
6.750200446494578E-3 0
1.23952107452536E-2 0
5.526556404556184E-3 0
1.2150323259832776E-2 0
3.23114147206017E-3 0
3.8445824109203217E-3 0
5.985399063747093E-1 0
6.094294520731339E-3 0
3.537211772622133E-3 0
1.33702971980686E-2 0
1.639892301407277E-3 0
4.881974677620279E-3 0
1.2462470820093947E-3 0
-2.979480719956042E-2 0
8.50007022657296E-3 0
4.595575594476541E-3 0
2.2331598461891467E-3 0
-1.2933816487132772E-2 0
-4.978849256071193E-3 0
-6.090728934935936E-3 0
-1.3038051610139403E-2 0
-7.547741352363735E-3 0
8.711782039032265E-3 0
-5.1168453826779215E-3 0
-1.3560640095340913E-2 0
-1.069269615287557E-3 0
-2.2188533027948667E-3 0
3.36596181683312E-3 0
-7.739689276541745E-3 0
1.9429183646966855E-3 0
-4.449969398602048E-3 0
2.7057898074001425E-3 0
-4.605324752461025E-3 0
1.8586087170176795E-3 0
-5.157908262896376E-3 0
1.1897775491129044E-3 0
-8.738378928150247E-3 0
2.9174745833518818E-3 0
-1.99975570406518E-3 0
-8.549091418677509E-4 0
-1.3062550375018998E-2 0
-4.92614958563197E-3 0
9.40692558287764E-3 0
-6.472980368752426E-3 0
9.75264991783053E-3 0
8.234236043661065E-3 0
-1.640077492588949E-2 0
3.1810651198747554E-3 0
7.009243599056414E-3 0
1.1386944006779748E-2 0
-2.481742570551177E-2 0
6.674944028417889E-3 0
1.2260689157154975E-2 0
6.6744448193136775E-3 0
1.3331447044151772E-2 0
3.4249521480374137E-3 0
6.094294520731362E-3 0
5.984664707473585E-1 0
5.779702239701818E-3 0
5.620822521799987E-3 0
1.033234058170538E-2 0
1.6875848445524512E-3 0
9.484980765678448E-3 0
4.138280003403329E-3 0
-2.7462232114377965E-2 0
1.0509272549366138E-2 0
4.913242766762382E-3 0
3.611936355427354E-3 0
-1.2785498476366548E-2 0
-4.6497169952938E-3 0
-6.540179188001794E-3 0
1.1935886907270318E-2 0
-5.860935122747423E-3 0
9.162919870362884E-3 0
-4.998763099879986E-3 0
-1.4187171382388683E-2 0
-1.0985780164528309E-3 0
-2.1327946710334045E-3 0
3.4094141479871676E-3 0
-8.452676080328316E-3 0
1.7366422507865181E-3 0
-4.897026783155462E-3 0
2.3492760438210743E-3 0
-5.5839980719802115E-3 0
1.9285960902449488E-3 0
-5.651665043279564E-3 0
1.0635271064994107E-3 0
-8.849822955842176E-3 0
3.3963215834620576E-3 0
-2.031526524215557E-3 0
-7.888850171481136E-4 0
-1.3983432867753267E-2 0
-5.5460208111925745E-3 0
1.0011385308841398E-2 0
-7.204768742475261E-3 0
9.790472727149616E-3 0
-9.090812477024894E-3 0
-1.2644542002383763E-2 0
2.8943333349303537E-3 0
7.163109623094165E-3 0
1.1806958309633067E-2 0
-2.665430679829563E-2 0
6.6392369596850465E-3 0
1.324816049210701E-2 0
6.793103373923341E-3 0
1.3300391373113774E-2 0
3.5372117726221153E-3 0
5.779702239701816E-3 0
6.107379602619237E-1 0
8.672171203583283E-3 0
5.634477133108261E-3 0
1.3308296068598607E-2 0
6.165923818953992E-3 0
1.2315526007813358E-2 0
6.934448689418605E-3 0
-2.783238336181183E-2 0
1.2153341469024892E-2 0
5.761408117321767E-3 0
4.722720974587274E-3 0
-1.3630322479633502E-2 0
-5.511707710416326E-3 0
1.1935886907270503E-2 0
8.649318080548462E-3 0
-5.892967949283155E-3 0
9.008908011230134E-3 0
-5.088844004243888E-3 0
-1.4125377049921745E-2 0
-7.99716572472489E-4 0
-1.9758248497740365E-3 0
3.34366912874043E-3 0
-8.816918118971001E-3 0
1.0494989070093266E-3 0
-5.648575589699765E-3 0
1.928596090244951E-3 0
-5.583998071980156E-3 0
2.355457624840849E-3 0
-4.9250953232613075E-3 0
1.8054596668878762E-3 0
-8.578096860176111E-3 0
3.5985278230095427E-3 0
-2.376087582245387E-3 0
-8.519931931141298E-4 0
-1.4323227990809102E-2 0
-5.263823653533573E-3 0
9.856894072953783E-3 0
-6.606743726236808E-3 0
-9.090812477025093E-3 0
-5.820552115965293E-3 0
-1.2242610218649405E-2 0
3.2484694980777214E-3 0
7.000500706345246E-3 0
1.1172571946185298E-2 0
-2.7119240409425985E-2 0
6.453779567777435E-3 0
1.2609070236121128E-2 0
6.011462458438545E-3 0
1.3370297198068594E-2 0
5.6208225217999706E-3 0
8.672171203583311E-3 0
6.10737960261924E-1 0
5.768266206490706E-3 0
3.589139063684228E-3 0
1.3169223333305047E-2 0
7.051101255722582E-3 0
1.2801624205321657E-2 0
7.349131127076743E-3 0
-2.7694393345956223E-2 0
1.3165660810732688E-2 0
5.586151390809099E-3 0
4.296229199542242E-3 0
-1.3933811837692574E-2 0
-7.5377782460681894E-3 0
8.263132326410964E-3 0
8.686920037906663E-3 0
-5.412078550746436E-3 0
8.687900634894993E-3 0
-4.525283475426345E-3 0
-1.32504041471925E-2 0
-7.797947149628798E-4 0
-2.022975537978512E-3 0
2.921321383205679E-3 0
-8.737421719638505E-3 0
1.1897776294381992E-3 0
-5.1610017465980726E-3 0
1.8647943281593607E-3 0
-4.6207920631002606E-3 0
2.749281472162606E-3 0
-4.545582381343827E-3 0
2.115357762293632E-3 0
-8.012617936674796E-3 0
3.761180535883962E-3 0
-2.7510750173379184E-3 0
-4.1739425797494736E-4 0
-1.4165862099664906E-2 0
-4.794636068605963E-3 0
9.107824435930542E-3 0
-1.641062502837012E-2 0
-5.845254411054159E-3 0
-5.56381176907749E-3 0
-1.1680838704808823E-2 0
2.6048647541747523E-3 0
5.73249019258578E-3 0
9.89325209812275E-3 0
-2.7033240084353812E-2 0
3.8713012755623452E-3 0
9.622719239474244E-3 0
1.63989230140725E-3 0
1.0332340581705355E-2 0
5.634477133108274E-3 0
5.768266206490706E-3 0
5.984831693909355E-1 0
6.048306960017718E-3 0
3.533398799232033E-3 0
1.3115027153183322E-2 0
7.066264159205029E-3 0
1.1595976864936604E-2 0
7.734039041135982E-3 0
-2.633743385927555E-2 0
1.3163931830452814E-2 0
5.590169661735982E-3 0
3.901456450604194E-3 0
1.2207722996943617E-2 0
-5.2625342343631445E-3 0
8.895280754535079E-3 0
8.498302733432305E-3 0
-5.480600220200886E-3 0
8.82806831566936E-3 0
-4.6438520419499665E-3 0
-1.331176310539481E-2 0
-8.343734617884841E-4 0
-1.9662941017997747E-3 0
3.126386503583394E-3 0
-7.928597179421041E-3 0
1.7505584542313486E-3 0
-5.612126670993271E-3 0
1.9395057399892402E-3 0
-4.468782147009149E-3 0
2.8155952395120315E-3 0
-4.361953756954538E-3 0
2.5629678187673445E-3 0
-8.26126111295047E-3 0
3.6908787273263323E-3 0
-3.1446603755472735E-3 0
5.6248284735725856E-5 0
-1.506426017167096E-2 0
-4.173857279055215E-3 0
3.726517259800682E-3 0
-1.2472510634533387E-2 0
-5.757124958224723E-3 0
-5.58950261305974E-3 0
-1.2232270001485308E-2 0
1.6088879762905786E-3 0
5.086905826248655E-3 0
8.15278665997096E-3 0
-2.9585267623492954E-2 0
1.1569720303958727E-3 0
4.881974677620275E-3 0
1.6875848445524714E-3 0
1.3308296068598608E-2 0
3.5891390636842465E-3 0
6.04830696001766E-3 0
5.986132474929884E-1 0
3.7007557886958E-3 0
3.4976994069561853E-3 0
1.1698178184863243E-2 0
6.249617235969823E-3 0
1.1251848187939095E-2 0
8.504787672826758E-3 0
-2.7204415357982098E-2 0
1.425121941190475E-2 0
6.407102775983352E-3 0
-5.524830146627486E-3 0
9.176416020537509E-3 0
-5.131568899917143E-3 0
8.316221001845816E-3 0
8.070024470524744E-3 0
-5.628882968952508E-3 0
8.601072104314917E-3 0
-4.692150804728349E-3 0
-1.323925028202771E-2 0
-7.409979546801278E-4 0
-1.6547717209595776E-3 0
3.471019598686919E-3 0
-8.54417254208339E-3 0
1.499809253129088E-3 0
-5.099124433066952E-3 0
2.5233326400504984E-3 0
-4.217078276164631E-3 0
3.223507636953135E-3 0
-4.593188036057117E-3 0
2.3912650130627033E-3 0
-8.850887228857487E-3 0
4.030469755426758E-3 0
-3.208786264798611E-3 0
3.783970937891984E-4 0
-1.4230934685275172E-2 0
8.567918280851596E-3 0
2.535849708729307E-3 0
-1.2203533090127216E-2 0
-5.433315711516235E-3 0
-6.020807277833483E-3 0
-1.2655086451407274E-2 0
1.2474899625286025E-3 0
3.93848233045944E-3 0
6.72365956887075E-3 0
-3.1011394871016052E-2 0
1.2462470820094203E-3 0
9.484980765678443E-3 0
6.1659238189539995E-3 0
1.316922333330505E-2 0
3.5333987992320344E-3 0
3.700755788695763E-3 0
5.949444386896597E-1 0
8.892817763173134E-4 0
1.1263041565504612E-3 0
9.561423456910243E-3 0
6.2303043991606E-3 0
1.0419347561465188E-2 0
8.745204112672742E-3 0
-2.7903801064991452E-2 0
1.3169643772267979E-2 0
-1.7375399176698128E-2 0
-3.7690755658108892E-3 0
9.144444997468838E-3 0
-5.418338794550783E-3 0
8.07369898535873E-3 0
7.799954579652443E-3 0
-5.847945623144333E-3 0
8.408105152950658E-3 0
-4.808769250505246E-3 0
-1.320511223200453E-2 0
-7.822001977443841E-4 0
-1.6668850671758856E-3 0
3.623011462829133E-3 0
-8.804786739543196E-3 0
1.782487636220037E-3 0
-4.479693260783347E-3 0
3.244415196225184E-3 0
-4.279692980963574E-3 0
3.238624710441016E-3 0
-5.133795481843405E-3 0
2.581386693239969E-3 0
-9.113191375651381E-3 0
4.519584123802818E-3 0
-2.794080893251693E-3 0
2.8175226758094646E-4 0
1.459090525366616E-2 0
5.867892500754339E-3 0
2.670494942468232E-3 0
-1.2402081359235503E-2 0
-5.480048868879719E-3 0
-6.121707822455593E-3 0
-1.28463108983485E-2 0
6.731098884699759E-4 0
3.1068034825139034E-3 0
6.831941239511233E-3 0
-2.9794807199560416E-2 0
4.138280003403321E-3 0
1.2315526007813351E-2 0
7.051101255722577E-3 0
1.311502715318334E-2 0
3.4976994069561423E-3 0
8.892817763173346E-4 0
5.920433748501076E-1 0
-2.368421870189869E-3 0
1.829864498100884E-4 0
8.170930933727434E-3 0
5.697056593694676E-3 0
9.906504688955728E-3 0
7.262808018090813E-3 0
-2.7665087931494803E-2 0
3.910611657026395E-4 0
-1.2590963343793359E-2 0
-3.797509347734982E-3 0
9.008689956108998E-3 0
-5.6841661337325615E-3 0
7.938488221545198E-3 0
7.569965655927476E-3 0
-5.969574532153575E-3 0
8.386058511327512E-3 0
-4.961741793513396E-3 0
-1.3354292882935593E-2 0
-8.727015273472831E-4 0
-1.943396509207034E-3 0
3.5103978080010213E-3 0
-7.99482881994509E-3 0
2.749925384498201E-3 0
-4.451864255552954E-3 0
3.3115817021469817E-3 0
-4.798554036695511E-3 0
3.3381066883423675E-3 0
-5.5582347211997445E-3 0
3.1440320477387714E-3 0
-9.445160013008871E-3 0
5.162447589946287E-3 0
-2.3177984345601147E-3 0
-3.592616202887449E-2 0
1.0642493729026212E-2 0
5.517577386283946E-3 0
2.813972013381809E-3 0
-1.2586930517305008E-2 0
-5.406680523396923E-3 0
-6.154517484651699E-3 0
-1.3072856830624707E-2 0
7.57306866649451E-4 0
3.7255950481513657E-3 0
8.500070226572969E-3 0
-2.7462232114377972E-2 0
6.934448689418601E-3 0
1.2801624205321641E-2 0
7.06626415920504E-3 0
1.169817818486323E-2 0
1.1263041565504773E-3 0
-2.368421870189874E-3 0
5.906707202191189E-1 0
-4.877235929893108E-3 0
1.5141793132856385E-4 0
6.770454921499722E-3 0
5.0634860841249196E-3 0
1.0188800589548562E-2 0
5.824942054475073E-3 0
-2.2077042789947774E-3 0
4.6075070747610814E-4 0
-1.2625925861105293E-2 0
-3.904293567828027E-3 0
8.956545804434324E-3 0
-5.883301298190975E-3 0
7.935516879768558E-3 0
7.471991172760062E-3 0
-5.972804402386025E-3 0
8.64856276479379E-3 0
-5.091839856079316E-3 0
-1.3168595407543249E-2 0
-7.867448396747971E-4 0
-2.378227759718696E-3 0
3.867222989052891E-3 0
-8.072945170797041E-3 0
2.531915825303765E-3 0
-5.040746575420903E-3 0
3.374996038322491E-3 0
-5.232773809012397E-3 0
3.7168718524081324E-3 0
-5.902494492573212E-3 0
3.818509692267552E-3 0
-9.508414640999809E-3 0
5.140386187372644E-3 0
7.304190147515257E-3 0
-2.6578670387304135E-2 0
1.0799261620455218E-2 0
5.093975734545807E-3 0
3.0364513432351503E-3 0
-1.2671324091619328E-2 0
-5.454757209406053E-3 0
-6.091961732736675E-3 0
-1.2983617504383394E-2 0
1.5456249738022194E-3 0
4.595575594476551E-3 0
1.0509272549366146E-2 0
-2.783238336181183E-2 0
7.34913112707674E-3 0
1.1595976864936615E-2 0
6.249617235969832E-3 0
9.561423456910233E-3 0
1.829864498100971E-4 0
-4.877235929893121E-3 0
5.908844581015872E-1 0
-7.345848338221758E-3 0
1.0305677057901403E-3 0
5.16809246741995E-3 0
4.946172350506807E-3 0
1.0384638254797419E-2 0
6.274167563711991E-3 0
-1.7089660179121517E-3 0
5.315739637670505E-4 0
-1.266284012873763E-2 0
-4.003634964444376E-3 0
8.990613991358658E-3 0
-6.056425981085139E-3 0
8.160593505009698E-3 0
7.608327017765651E-3 0
-5.854471159045759E-3 0
9.305009738850937E-3 0
-4.788431053052487E-3 0
-1.3929813094111357E-2 0
-9.056129667560527E-4 0
-2.8887909142608923E-3 0
3.614074800108628E-3 0
-8.804962620564984E-3 0
2.644934847032645E-3 0
-5.5147808314529555E-3 0
3.7327362854338813E-3 0
-5.595851712183803E-3 0
4.247507398507996E-3 0
-6.237155243903037E-3 0
4.052616863589655E-3 0
-9.19313769117764E-3 0
1.3806113665346266E-2 0
5.28201962099858E-3 0
-2.7136849901034293E-2 0
1.1197108263737605E-2 0
4.629137957357649E-3 0
3.2287158256001348E-3 0
-1.2610815064501782E-2 0
-5.525431667473968E-3 0
-5.97912215664067E-3 0
-1.2986956434293552E-2 0
2.2331598461891454E-3 0
4.913242766762387E-3 0
1.2153341469024895E-2 0
-2.7694393345956227E-2 0
7.734039041135991E-3 0
1.1251848187939098E-2 0
6.230304399160605E-3 0
8.17093093372743E-3 0
1.5141793132857165E-4 0
-7.34584833822177E-3 0
5.923961493187223E-1 0
-1.0425259713262408E-2 0
2.724926246070503E-3 0
3.984059633525784E-3 0
4.346011621382991E-3 0
-1.1354906165098167E-2 0
4.75361364625413E-3 0
-1.8202772251976786E-3 0
5.460269036353031E-4 0
-1.266340744618348E-2 0
-4.05792136732146E-3 0
9.244277224577505E-3 0
-6.309200760344801E-3 0
8.50969413780153E-3 0
8.079498708094157E-3 0
-5.912213261422665E-3 0
9.498816551708991E-3 0
-5.527685820839613E-3 0
-1.4341562981162063E-2 0
-5.092831058175878E-4 0
-3.224026322414221E-3 0
4.048528411570283E-3 0
-9.06941822898392E-3 0
3.1784175262631166E-3 0
-5.8875741619695025E-3 0
4.250635292879452E-3 0
-6.009780433689259E-3 0
4.8564127389403465E-3 0
-6.340588952287531E-3 0
3.8074581932454514E-3 0
3.446698811471882E-3 0
9.662093886254327E-3 0
5.6036132899111146E-3 0
-2.7861984441519813E-2 0
1.1875200039711866E-2 0
4.277852377932842E-3 0
3.088053664805796E-3 0
-1.2474498794522195E-2 0
-5.528688300271426E-3 0
-5.770216223460898E-3 0
-1.2933816487132769E-2 0
3.611936355427348E-3 0
5.761408117321767E-3 0
1.316566081073269E-2 0
-2.633743385927555E-2 0
8.504787672826745E-3 0
1.041934756146519E-2 0
5.697056593694659E-3 0
6.770454921499719E-3 0
1.0305677057901464E-3 0
-1.0425259713262417E-2 0
5.955899659539802E-1 0
-1.4502550286573431E-2 0
4.0170756532107495E-3 0
5.358720758077276E-3 0
4.5911909512071965E-3 0
-8.562001763003068E-3 0
4.958713159601583E-3 0
-1.87864368594134E-3 0
5.41557467955386E-4 0
-1.2687819061635781E-2 0
-4.136779043134044E-3 0
9.863712969932025E-3 0
-6.53088162077644E-3 0
8.661375271202126E-3 0
8.773894220736775E-3 0
-6.536204246671869E-3 0
1.0018773725540005E-2 0
-5.271212070232175E-3 0
-1.4102640275610302E-2 0
1.6907641343135468E-4 0
-3.134674674832364E-3 0
4.570482404364113E-3 0
-9.420586851534964E-3 0
3.826071135444644E-3 0
-6.238231990561509E-3 0
4.854313717960888E-3 0
-6.530730273967024E-3 0
5.1907027611775665E-3 0
-6.181835467960729E-3 0
1.0645815824168488E-2 0
2.41312332310951E-3 0
9.193026816444573E-3 0
6.179106590211636E-3 0
-2.8814939396966752E-2 0
1.2642368688142617E-2 0
4.467462194103847E-3 0
2.772627706477117E-3 0
-1.2545852177148821E-2 0
-5.35297063358248E-3 0
-4.978849256071195E-3 0
-1.2785498476366558E-2 0
4.722720974587273E-3 0
5.586151390809108E-3 0
1.3163931830452811E-2 0
-2.720441535798211E-2 0
8.745204112672727E-3 0
9.906504688955754E-3 0
5.063486084124905E-3 0
5.168092467419953E-3 0
2.724926246070503E-3 0
-1.4502550286573445E-2 0
6.005965051365929E-1 0
-1.8519820511941815E-2 0
1.9217928840279041E-3 0
-7.2162700225133275E-3 0
3.374105493993011E-3 0
-8.556719155630403E-3 0
4.797271242260184E-3 0
-1.6388041887156677E-3 0
5.623607343434295E-4 0
-1.2625817980918023E-2 0
-4.666524925597029E-3 0
1.0480654192603104E-2 0
-6.075183182214379E-3 0
8.718488879478892E-3 0
9.734072130874296E-3 0
-7.140825116481936E-3 0
9.792950446960458E-3 0
-4.776060686222309E-3 0
-1.4921881411888743E-2 0
4.7930005492507663E-4 0
-2.7399021291013535E-3 0
5.178892964280002E-3 0
-9.507892741940015E-3 0
4.047643364951591E-3 0
-6.344922751053366E-3 0
5.188495127861737E-3 0
-6.413729082545551E-3 0
4.675914626932984E-3 0
-5.951174792136299E-3 0
7.775940346692883E-3 0
2.6914711776256607E-3 0
8.864017070408943E-3 0
7.002739207385384E-3 0
-2.9389039070754578E-2 0
1.1958967127795313E-2 0
5.548394908108477E-3 0
2.900480643948855E-3 0
-1.2633507006521362E-2 0
-6.090728934935938E-3 0
-4.649716995293803E-3 0
-1.3630322479633495E-2 0
4.2962291995422355E-3 0
5.5901696617359775E-3 0
1.4251219411904765E-2 0
-2.7903801064991452E-2 0
7.262808018090802E-3 0
1.0188800589548597E-2 0
4.946172350506782E-3 0
3.9840596335258185E-3 0
4.017075653210719E-3 0
-1.8519820511941794E-2 0
6.028366319373242E-1 0
-1.3476008500186553E-2 0
4.736232100301798E-3 0
-4.898747391102104E-3 0
2.9088994116050733E-3 0
-8.257582687062318E-3 0
4.374970883729968E-3 0
-1.4468615711873691E-3 0
3.203879596173279E-4 0
-1.2766617125963609E-2 0
-4.80361323076795E-3 0
1.0148443173273352E-2 0
-5.686692814767151E-3 0
8.304112206279846E-3 0
9.868939658246683E-3 0
-6.685210657333883E-3 0
9.0379479157349E-3 0
-4.13429615554568E-3 0
-1.4170928177492626E-2 0
3.159429989592555E-4 0
-2.308921801213171E-3 0
5.138738254077683E-3 0
-9.197659039310793E-3 0
3.803769169147894E-3 0
-6.183880138652544E-3 0
4.675330358981828E-3 0
-5.533000400583141E-3 0
-7.0617176680790195E-3 0
-4.44409270083147E-3 0
7.709426226149863E-3 0
2.972958545506244E-3 0
9.470816856527106E-3 0
6.676272524113232E-3 0
-2.8526411272007324E-2 0
1.1052417010378898E-2 0
6.173889519265117E-3 0
2.8963004329648216E-3 0
-1.3038051610139401E-2 0
-6.540179188001775E-3 0
-5.5117077104163276E-3 0
-1.3933811837692574E-2 0
3.90145645060419E-3 0
6.407102775983355E-3 0
1.3169643772267986E-2 0
-2.7665087931494796E-2 0
5.824942054475083E-3 0
1.0384638254797404E-2 0
4.346011621382982E-3 0
5.358720758077296E-3 0
1.9217928840279108E-3 0
-1.3476008500186614E-2 0
6.000309344599944E-1 0
