%%MatrixMarket matrix array complex general
%
50 50
4.7591169163374736E-1 0
2.622378623997021E-5 0
2.9673701183629583E-3 0
-1.2953151215691688E-3 0
2.522939565728719E-3 0
-2.4223595719705523E-3 0
2.4885470440995554E-3 0
-8.863414846907824E-4 0
-3.1629535503460812E-3 0
-4.295343337346132E-3 0
-2.504832151723722E-3 0
6.167589238742623E-3 0
-8.607275736405959E-4 0
-8.607275736405692E-4 0
6.164319672145001E-3 0
-2.4899861178562088E-3 0
-4.3327705711455715E-3 0
-3.089688764529104E-3 0
-1.0128655330198851E-3 0
2.69155101950668E-3 0
-2.731550646534002E-3 0
2.958764707497318E-3 0
-1.8570037648891799E-3 0
3.5098666124881643E-3 0
-2.1620711417321976E-4 0
9.643309658935591E-3 0
-1.5327088558850328E-3 0
6.42018166085951E-3 0
-5.2462911900272545E-5 0
4.1553042573993825E-3 0
5.481389318857286E-3 0
1.6955128728700594E-3 0
5.762585937642607E-3 0
-1.0717918134310285E-2 0
1.0237658074101798E-2 0
8.710601986860252E-3 0
-1.066001406893239E-2 0
-7.5863875696218054E-3 0
-7.586387569621398E-3 0
-1.0655692869790439E-2 0
8.690980833139446E-3 0
1.0284749773109671E-2 0
-1.0798756955181232E-2 0
5.869854192599781E-3 0
1.5901642563732497E-3 0
5.523620929214157E-3 0
4.264214896900807E-3 0
-4.3907049005081965E-4 0
6.992814866413043E-3 0
-1.9213464587293587E-3 0
2.6223786239969187E-5 0
4.871959298969231E-1 0
2.2317026508905842E-5 0
2.1552928095276156E-3 0
-9.843044715386984E-4 0
1.7880273222336072E-3 0
-1.816035315521509E-3 0
1.7662057132175183E-3 0
-7.17329698940274E-4 0
-2.4151189180245305E-3 0
-3.363033741042466E-3 0
-2.0861344511268103E-3 0
4.6281018128938554E-3 0
-6.611376227299812E-4 0
-4.870161825878538E-4 0
4.663612557335214E-3 0
-1.7289013189910906E-3 0
-3.1093461085944804E-3 0
-2.192803862790392E-3 0
-7.296792108434211E-4 0
2.039240417733383E-3 0
-2.051571885886924E-3 0
2.239946691674841E-3 0
-1.3676801158179694E-3 0
2.4837647136851005E-3 0
-1.5327088558856174E-3 0
5.063143291081381E-3 0
-1.1343829019505808E-3 0
4.713008074950116E-3 0
6.225896333898428E-5 0
3.09996080845133E-3 0
4.085712287576608E-3 0
1.403332391725025E-3 0
4.443139654375508E-3 0
-7.469441233436178E-3 0
8.096561341919394E-3 0
6.768930649409162E-3 0
-8.175939430601839E-3 0
-5.325553869607424E-3 0
-5.369085859728002E-3 0
-8.10394496132852E-3 0
6.1422453123784575E-3 0
7.406017906065132E-3 0
-8.037958084958273E-3 0
4.319679089976127E-3 0
9.96336618898601E-4 0
4.101943823623488E-3 0
2.969217167783343E-3 0
-1.4787105806621652E-4 0
5.014138835294658E-3 0
2.9673701183629587E-3 0
2.231702650889348E-5 0
4.871805583470282E-1 0
5.294756723442185E-7 0
2.126742275066465E-3 0
-1.0200299844676823E-3 0
1.744422139025671E-3 0
-1.8689976016833343E-3 0
1.6961251188082902E-3 0
-8.13137857385409E-4 0
-2.5247530529813266E-3 0
-3.3812145732683885E-3 0
-2.1277659961353983E-3 0
4.686249489894528E-3 0
-6.650796989123527E-4 0
-6.569786165478443E-4 0
4.536969847517761E-3 0
-1.7425579636277959E-3 0
-3.0957166656452764E-3 0
-2.1703034784627873E-3 0
-7.328137022643157E-4 0
2.0912554180843564E-3 0
-2.106061529814217E-3 0
2.2231888726630283E-3 0
-1.187937723870731E-3 0
6.420181660860493E-3 0
-1.135074657005402E-3 0
5.099470060441103E-3 0
-1.086682970346549E-3 0
4.776352135606525E-3 0
1.5161858779382347E-4 0
3.2339357347487157E-3 0
4.287146458229161E-3 0
1.7118157589506616E-3 0
4.8431071747570805E-3 0
-6.9955405075510175E-3 0
8.031089685654847E-3 0
6.93734389588938E-3 0
-7.8932587597132E-3 0
-5.0756593612138355E-3 0
-5.304210127506271E-3 0
-7.820217289097592E-3 0
6.059127315127876E-3 0
7.46205882988027E-3 0
-8.179753146406196E-3 0
4.446989102489102E-3 0
7.847313312395475E-4 0
4.269536678408127E-3 0
2.7788632220850204E-3 0
4.411028716106321E-5 0
-1.2953151215691675E-3 0
2.155292809527618E-3 0
5.294756723569607E-7 0
4.871525272425401E-1 0
-3.279859154950574E-5 0
2.0891858088680814E-3 0
-1.0612457636963682E-3 0
1.69817003812297E-3 0
-1.930643393830673E-3 0
1.6002056528202537E-3 0
-1.0445677305060625E-3 0
-2.79850297181316E-3 0
-3.6863568591977112E-3 0
-2.102729386359604E-3 0
4.556027386225969E-3 0
-5.964967679178602E-4 0
-6.896525406030833E-4 0
4.5282731446110135E-3 0
-1.763775936238805E-3 0
-3.0744550956705147E-3 0
-2.1747910386492653E-3 0
-7.306737119846803E-4 0
2.1274933219887298E-3 0
-2.0808285452450738E-3 0
2.0994695237622463E-3 0
-5.24629119011176E-5 0
4.7105147995334514E-3 0
-1.0895038167567893E-3 0
5.1566118384526035E-3 0
-1.0117334356363984E-3 0
4.881958753277569E-3 0
3.0960524396851516E-4 0
3.468561873177207E-3 0
4.636014209184617E-3 0
2.140398156435039E-3 0
5.309856454571191E-3 0
-6.915383568815407E-3 0
8.395686638079502E-3 0
7.1042865063697174E-3 0
-7.7129986842653965E-3 0
-5.309376457403018E-3 0
-5.25366089277045E-3 0
-7.712517945601265E-3 0
6.072006753219841E-3 0
7.593329556963938E-3 0
-8.32051285597556E-3 0
4.660262984804794E-3 0
5.396994536962137E-4 0
4.4507430796646595E-3 0
2.9422577698140595E-3 0
2.5229395657287205E-3 0
-9.843044715387042E-4 0
2.1267422750664753E-3 0
-3.279859154949212E-5 0
4.8711720028189887E-1 0
-6.748097391974423E-5 0
2.056613636145928E-3 0
-1.0930173452464189E-3 0
1.6529414428592423E-3 0
-2.013540597665159E-3 0
1.4106027599434226E-3 0
-1.163284146252283E-3 0
-2.9177066706813936E-3 0
-3.5987464026411456E-3 0
-1.844714877849912E-3 0
4.54956376338198E-3 0
-6.971254597779983E-4 0
-7.400599138935631E-4 0
4.53376054684335E-3 0
-1.7992644893260747E-3 0
-3.0412237773007784E-3 0
-2.213087489228874E-3 0
-7.051626443710149E-4 0
2.0504169330871837E-3 0
-1.960454254509355E-3 0
4.155304257399868E-3 0
5.700514935951398E-5 0
4.769007060250165E-3 0
-1.0167858323898518E-3 0
5.248686622547471E-3 0
-8.903350558199898E-4 0
5.048409052455669E-3 0
5.331716000526801E-4 0
3.761178495922399E-3 0
4.933449858789565E-3 0
2.35834407951096E-3 0
5.132480357226848E-3 0
-7.587639475612869E-3 0
8.27732191266841E-3 0
6.347339748268344E-3 0
-7.949186512318945E-3 0
-5.10850095380888E-3 0
-5.063412531877092E-3 0
-7.5138164823275195E-3 0
6.094346829880227E-3 0
7.765699217611925E-3 0
-8.519133875195253E-3 0
4.9221817506636045E-3 0
4.4058362892832834E-4 0
4.474043086640791E-3 0
-2.422359571970552E-3 0
1.7880273222336204E-3 0
-1.0200299844677024E-3 0
2.0891858088680727E-3 0
-6.748097391972144E-5 0
4.870883245795284E-1 0
-8.985596254599004E-5 0
2.0404926954717953E-3 0
-1.1020404004450112E-3 0
1.6569527538212246E-3 0
-1.9199443561785407E-3 0
1.595519067399233E-3 0
-1.038851167732313E-3 0
-2.762319048104864E-3 0
-3.4055006951917875E-3 0
-1.9960193296928693E-3 0
4.401198006463535E-3 0
-7.436951989432635E-4 0
-7.830217805609111E-4 0
4.557994045033144E-3 0
-1.8442088120592507E-3 0
-2.9822384921785743E-3 0
-2.285281275758044E-3 0
-5.913018473607005E-4 0
1.9529729125295251E-3 0
5.481389318857144E-3 0
3.0917516669111494E-3 0
1.396013817559383E-4 0
4.8721118187321786E-3 0
-8.944513376754366E-4 0
5.390446241053811E-3 0
-7.268169932860912E-4 0
5.228436261586898E-3 0
7.041213718814176E-4 0
3.8398163435775542E-3 0
4.718165662450393E-3 0
1.9337353217080508E-3 0
5.123157707655754E-3 0
-7.761751218458484E-3 0
7.722986452758416E-3 0
6.452346365290183E-3 0
-7.678773901911892E-3 0
-4.839404839710084E-3 0
-4.873413149482115E-3 0
-7.392214940585899E-3 0
6.063063576119366E-3 0
7.92570567032117E-3 0
-8.783607655494118E-3 0
5.069163647209182E-3 0
8.272577611414454E-4 0
2.4885470440995532E-3 0
-1.8160353155215185E-3 0
1.7444221390256905E-3 0
-1.0612457636963596E-3 0
2.056613636145923E-3 0
-8.985596254599592E-5 0
4.870728732537741E-1 0
-1.0181616186374291E-4 0
2.04831475203821E-3 0
-1.0498938352203702E-3 0
1.8173496543757621E-3 0
-1.8842054285402074E-3 0
1.626708545547871E-3 0
-9.219574015165452E-4 0
-2.5937779229731196E-3 0
-3.416556568277998E-3 0
-1.944466309166717E-3 0
4.395700416142289E-3 0
-7.246199382613955E-4 0
-8.049140745176656E-4 0
4.596982156261296E-3 0
-1.8965948969919036E-3 0
-2.914749716599495E-3 0
-2.3634728082489657E-3 0
-5.927592039918141E-4 0
1.695512872869971E-3 0
4.077332889784754E-3 0
3.2220865876082163E-3 0
3.0043370807603396E-4 0
5.045180275042863E-3 0
-7.259550285660404E-4 0
5.546790473246253E-3 0
-5.894455373382519E-4 0
5.326560584005371E-3 0
7.326539408636901E-4 0
3.915321515310151E-3 0
4.937043441522393E-3 0
2.192500785062149E-3 0
5.084820071593087E-3 0
-7.571664641911938E-3 0
7.4549690362726954E-3 0
6.408323841053964E-3 0
-7.528627154975034E-3 0
-4.738630542803589E-3 0
-4.779378121078832E-3 0
-7.431287065528179E-3 0
6.046316624835189E-3 0
8.007953262899083E-3 0
-8.880108224551594E-3 0
4.886350579718782E-3 0
-8.863414846907824E-4 0
1.7662057132175216E-3 0
-1.8689976016833486E-3 0
1.6981700381229555E-3 0
-1.0930173452464208E-3 0
2.0404926954717827E-3 0
-1.0181616186373726E-4 0
4.8704287959919607E-1 0
-1.502568768031909E-4 0
1.9934125276732774E-3 0
-1.0936484038809222E-3 0
1.6233794013820713E-3 0
-2.131546820386748E-3 0
1.7574852330823286E-3 0
-8.038591614463951E-4 0
-2.4586850301605836E-3 0
-3.176567685939564E-3 0
-1.8280532016752434E-3 0
4.441549148642593E-3 0
-7.162722150676618E-4 0
-8.348286354824976E-4 0
4.657510360611812E-3 0
-1.9382094627180908E-3 0
-2.941100701444111E-3 0
-2.421394035517176E-3 0
5.7625859376428034E-3 0
1.402128851864521E-3 0
4.287928256313051E-3 0
3.472203681505054E-3 0
5.376684352928002E-4 0
5.23281468896078E-3 0
-5.8561008805264E-4 0
5.659494515924515E-3 0
-4.8336468309652906E-4 0
5.454258428258628E-3 0
1.018953512655582E-3 0
4.15561858369613E-3 0
5.284863732100365E-3 0
2.1868925213996927E-3 0
4.5700899308995626E-3 0
-7.764713951536344E-3 0
7.468691749448294E-3 0
6.402264462191927E-3 0
-7.465175394403103E-3 0
-4.810646728732189E-3 0
-4.712340904528973E-3 0
-7.765718344509008E-3 0
6.206664925724168E-3 0
7.573974074100915E-3 0
-8.52919667918712E-3 0
-3.1629535503460817E-3 0
-7.173296989402711E-4 0
1.696125118808299E-3 0
-1.9306433938306566E-3 0
1.6529414428592447E-3 0
-1.1020404004450101E-3 0
2.0483147520381916E-3 0
-1.5025687680320562E-4 0
4.86876281609291E-1 0
-4.3848012311587203E-4 0
1.6324791035114373E-3 0
-1.4299454188641926E-3 0
1.5942915511906438E-3 0
-2.0183509748239944E-3 0
1.8684054776099874E-3 0
-4.502438945151058E-4 0
-2.1155198143451887E-3 0
-3.009115215495452E-3 0
-1.8426743552246137E-3 0
4.407271211596616E-3 0
-7.116050205676226E-4 0
-8.702297507100821E-4 0
4.790288640262666E-3 0
-2.0500363961551025E-3 0
-3.1028584719926637E-3 0
-1.0717918134310493E-2 0
4.45822059974911E-3 0
1.7515592960961864E-3 0
4.679533014732321E-3 0
3.7763036176391065E-3 0
6.971478315486191E-4 0
5.3258675453804185E-3 0
-4.7580283043373783E-4 0
5.796338427234445E-3 0
-3.1786478637438266E-4 0
5.679543657153329E-3 0
1.1831137329703218E-3 0
4.491871624296245E-3 0
5.2691835132429275E-3 0
1.8303955882393132E-3 0
4.444632867804508E-3 0
-7.738291356070281E-3 0
7.4738472327977815E-3 0
6.375492120027933E-3 0
-7.455585208515461E-3 0
-5.0151189328097034E-3 0
-4.7129335628744535E-3 0
-8.363740459423256E-3 0
6.709468501658665E-3 0
7.411281741139201E-3 0
-4.29534333734613E-3 0
-2.4151189180245305E-3 0
-8.131378573854082E-4 0
1.6002056528202423E-3 0
-2.013540597665158E-3 0
1.6569527538212313E-3 0
-1.049893835220357E-3 0
1.99341252767329E-3 0
-4.384801231158457E-4 0
4.8636275227884557E-1 0
-9.55148297769613E-4 0
1.3916192197334417E-3 0
-1.5077040037967176E-3 0
1.6954694922525528E-3 0
-1.6121255901979774E-3 0
2.3096696030355268E-3 0
-1.585367570091063E-4 0
-2.1329571520375067E-3 0
-3.1378520105142696E-3 0
-1.999774782272431E-3 0
4.447013956693215E-3 0
-6.793820906378234E-4 0
-8.866337499828246E-4 0
4.899009910887409E-3 0
-2.04393532832266E-3 0
1.0237658074101904E-2 0
-7.45451714479058E-3 0
4.927827532021031E-3 0
2.240334593758904E-3 0
4.948941688263576E-3 0
3.7987959447363263E-3 0
7.254436738419449E-4 0
5.479905285685585E-3 0
-3.2485602283043686E-4 0
5.884316537265998E-3 0
-1.6447849037378744E-4 0
5.970710796656424E-3 0
1.4405956448514422E-3 0
4.310648510035364E-3 0
4.7006549844612E-3 0
1.7337117356210512E-3 0
4.506831016826758E-3 0
-7.741758783267459E-3 0
7.460000444998755E-3 0
6.38763861632689E-3 0
-7.574550175344134E-3 0
-5.2795419984217945E-3 0
-4.944145764556059E-3 0
-8.543404447719522E-3 0
6.839845977701851E-3 0
-2.504832151723722E-3 0
-3.3630337410424666E-3 0
-2.524753052981328E-3 0
-1.0445677305060568E-3 0
1.4106027599434215E-3 0
-1.9199443561785552E-3 0
1.817349654375746E-3 0
-1.0936484038809367E-3 0
1.6324791035114237E-3 0
-9.551482977696204E-4 0
4.8557517568939934E-1 0
-1.4298946044837386E-3 0
1.4636063356919082E-3 0
-1.5504220396713065E-3 0
2.224527668042337E-3 0
-8.799030738482664E-4 0
2.3014162458841977E-3 0
-4.2553989218379484E-4 0
-2.5096867724073617E-3 0
-3.3274348263726016E-3 0
-2.131404517853107E-3 0
4.72208066424568E-3 0
-7.245952165290557E-4 0
-6.541534113956582E-4 0
4.955129275912341E-3 0
8.710601986860148E-3 0
7.98637753859598E-3 0
-6.853404700266731E-3 0
5.4872233446792915E-3 0
2.32830300405574E-3 0
4.601734856428179E-3 0
3.924090383583722E-3 0
1.1120884301987794E-3 0
5.617973538970823E-3 0
-3.6920234193358253E-4 0
5.918817843091538E-3 0
3.695865386590917E-4 0
6.736310654456548E-3 0
1.1652851428308956E-3 0
3.8947412503330904E-3 0
4.982518364261606E-3 0
1.9201653766966805E-3 0
4.540013858940581E-3 0
-7.896502996361007E-3 0
7.468542444929638E-3 0
6.591503174181209E-3 0
-8.0034434587564E-3 0
-5.38486225660798E-3 0
-5.488985623240592E-3 0
-8.437325879751531E-3 0
6.167589238742626E-3 0
-2.086134451126813E-3 0
-3.3812145732683963E-3 0
-2.7985029718131664E-3 0
-1.163284146252278E-3 0
1.595519067399247E-3 0
-1.8842054285401915E-3 0
1.6233794013820822E-3 0
-1.429945418864196E-3 0
1.3916192197334306E-3 0
-1.4298946044837182E-3 0
4.855509434496762E-1 0
-1.363271181951055E-3 0
1.1120306517965685E-3 0
-1.08561982363348E-3 0
2.22406469727543E-3 0
-1.6085815154371025E-3 0
1.8569125584435506E-3 0
-7.742544782955064E-4 0
-2.660264604340679E-3 0
-3.2701821819908854E-3 0
-2.0854034524330546E-3 0
4.916576720261373E-3 0
-1.0341447811726369E-3 0
-3.4652834828142586E-4 0
-1.0660014068932348E-2 0
6.499771284326664E-3 0
8.061276527311164E-3 0
-6.878550303603513E-3 0
5.064700739680875E-3 0
1.8972560348904258E-3 0
5.04236220915755E-3 0
4.308186559212559E-3 0
1.065159799463119E-3 0
5.601709511318021E-3 0
-3.286970262522562E-4 0
6.5722416988387425E-3 0
9.033267834803014E-4 0
6.470481294477268E-3 0
1.449468685211434E-3 0
4.577559930994823E-3 0
5.111225275724136E-3 0
1.8742990695898459E-3 0
4.52036090192287E-3 0
-7.7869380621704235E-3 0
7.825329050309115E-3 0
6.467096079564521E-3 0
-7.956989976360164E-3 0
-4.849815221008458E-3 0
-5.493896814915359E-3 0
-8.607275736405887E-4 0
4.628101812893854E-3 0
-2.127765996135397E-3 0
-3.6863568591977143E-3 0
-2.9177066706813927E-3 0
-1.0388511677323136E-3 0
1.626708545547874E-3 0
-2.131546820386745E-3 0
1.5942915511906412E-3 0
-1.5077040037967124E-3 0
1.4636063356919132E-3 0
-1.3632711819510498E-3 0
4.8383434933784236E-1 0
-1.8323877783407128E-3 0
1.1127902937203703E-3 0
-1.5538713254990082E-3 0
1.7034222929762787E-3 0
-2.03036818756567E-3 0
1.7678555842125638E-3 0
-9.162675228312383E-4 0
-2.815019002672104E-3 0
-3.452825933195214E-3 0
-2.4295067680787717E-3 0
5.135373356299861E-3 0
-9.3393738248498E-4 0
-7.58638756962168E-3 0
-8.341824182050674E-3 0
6.875885608402682E-3 0
8.31807610522131E-3 0
-7.622296915653386E-3 0
5.171885995093246E-3 0
2.289191183854516E-3 0
5.3686536724441665E-3 0
4.421555701327032E-3 0
1.2458607199262596E-3 0
6.12310347162493E-3 0
4.187475126735166E-4 0
7.893443484023252E-3 0
8.647616977640793E-4 0
6.949865189032947E-3 0
1.8020828320721859E-3 0
4.447055950069175E-3 0
5.448205901361175E-3 0
1.9328258294228292E-3 0
5.21897149259363E-3 0
-8.064417911009562E-3 0
8.492465086407762E-3 0
7.263768997427228E-3 0
-8.18367212036132E-3 0
-5.213073683859796E-3 0
-8.607275736405623E-4 0
-6.611376227299795E-4 0
4.686249489894525E-3 0
-2.1027293863595986E-3 0
-3.5987464026411447E-3 0
-2.7623190481048617E-3 0
-9.219574015165481E-4 0
1.7574852330823321E-3 0
-2.018350974823992E-3 0
1.6954694922525528E-3 0
-1.5504220396713015E-3 0
1.1120306517965692E-3 0
-1.8323877783407096E-3 0
4.8383434933784236E-1 0
-1.3651188314402092E-3 0
1.4719959084601101E-3 0
-1.5281350665178415E-3 0
1.6308484157952074E-3 0
-2.1848942959325802E-3 0
1.6921502224064465E-3 0
-1.1026574251431975E-3 0
-2.8795184026054734E-3 0
-3.6340097658865513E-3 0
-2.2812242081874648E-3 0
4.975389578581138E-3 0
-7.586387569621624E-3 0
-5.159669118158537E-3 0
-7.831800472226601E-3 0
7.181897039227983E-3 0
8.311979352708875E-3 0
-7.810479505895954E-3 0
4.988129672800699E-3 0
2.103102581055892E-3 0
5.339499436212133E-3 0
4.5053834349605415E-3 0
1.778492325662511E-3 0
6.955060565284043E-3 0
8.647616977640982E-4 0
7.893443484023252E-3 0
4.237451921921646E-4 0
6.100410641496796E-3 0
1.3032000201487906E-3 0
4.308690803902511E-3 0
5.564351543121591E-3 0
1.976931499746855E-3 0
5.626395773515089E-3 0
-8.19642201548949E-3 0
8.784548275832004E-3 0
6.7638839368447876E-3 0
-8.840565461289383E-3 0
6.164319672145004E-3 0
-4.870161825878548E-4 0
-6.650796989123465E-4 0
4.55602738622597E-3 0
-1.8447148778499081E-3 0
-3.405500695191787E-3 0
-2.5937779229731218E-3 0
-8.038591614463951E-4 0
1.8684054776099974E-3 0
-1.6121255901979852E-3 0
2.2245276680423398E-3 0
-1.0856198236334766E-3 0
1.1127902937203688E-3 0
-1.3651188314402144E-3 0
4.855556223795463E-1 0
-1.442539961726781E-3 0
1.418925300593174E-3 0
-1.4781372399588425E-3 0
1.697549288042116E-3 0
-1.9872455850624745E-3 0
1.7259860367458617E-3 0
-1.3116721951380486E-3 0
-2.640521717366855E-3 0
-3.5210673495681567E-3 0
-2.13569125345647E-3 0
-1.0655692869790246E-2 0
-5.099928635171169E-3 0
-5.105842791419918E-3 0
-7.74982818968492E-3 0
6.415118428265952E-3 0
7.759462812451263E-3 0
-7.676984219952868E-3 0
4.4175230018525E-3 0
1.9483493198372383E-3 0
5.069654701054256E-3 0
4.59303248986583E-3 0
1.4494986222331693E-3 0
6.465308328622918E-3 0
9.083020526021997E-4 0
6.5658130058974425E-3 0
-3.136537285650724E-4 0
5.565989234324788E-3 0
1.1402725758130874E-3 0
4.16162696670557E-3 0
5.31310673159595E-3 0
1.4193076634113296E-3 0
5.834823250861131E-3 0
-7.971129595111199E-3 0
9.162497936555205E-3 0
6.34917288168037E-3 0
-2.48998611785621E-3 0
4.663612557335213E-3 0
-6.569786165478463E-4 0
-5.964967679178599E-4 0
4.549563763381982E-3 0
-1.996019329692867E-3 0
-3.416556568277989E-3 0
-2.458685030160589E-3 0
-4.502438945151269E-4 0
2.3096696030355177E-3 0
-8.799030738482739E-4 0
2.2240646972754314E-3 0
-1.5538713254990113E-3 0
1.4719959084601064E-3 0
-1.4425399617267784E-3 0
4.855935437228257E-1 0
-9.83096659127527E-4 0
1.6748078263130756E-3 0
-1.1582093587814417E-3 0
1.9149613184523105E-3 0
-2.0591455980800257E-3 0
1.5870312567955766E-3 0
-1.2289860062358864E-3 0
-2.385350014093372E-3 0
-3.604852916726076E-3 0
8.690980833139449E-3 0
-7.993751438578216E-3 0
-5.4463614250704374E-3 0
-5.486760419501226E-3 0
-7.91914117976215E-3 0
6.568790462429519E-3 0
7.446203847787119E-3 0
-7.857853620755136E-3 0
4.506203902791156E-3 0
1.9384427103408771E-3 0
4.982483516312848E-3 0
3.879140431847206E-3 0
1.1887738909496267E-3 0
6.7137195826193685E-3 0
3.8477344520395203E-4 0
5.914097315440967E-3 0
-3.708545730954589E-4 0
5.6145815171352535E-3 0
1.1447826155151447E-3 0
3.817181832624488E-3 0
4.86647911553762E-3 0
1.7961685513745035E-3 0
6.465289442601917E-3 0
-8.074053889261601E-3 0
9.044768660772808E-3 0
-4.33277057114557E-3 0
-1.728901318991088E-3 0
4.536969847517761E-3 0
-6.896525406030801E-4 0
-6.971254597780003E-4 0
4.401198006463537E-3 0
-1.9444663091667163E-3 0
-3.1765676859395633E-3 0
-2.1155198143451826E-3 0
-1.5853675700911254E-4 0
2.301416245884194E-3 0
-1.6085815154371003E-3 0
1.7034222929762745E-3 0
-1.528135066517844E-3 0
1.4189253005931718E-3 0
-9.83096659127511E-4 0
4.8638875835839795E-1 0
-4.627224028630816E-4 0
2.0260001396650434E-3 0
-1.1137644753546547E-3 0
1.7820837740480492E-3 0
-2.2201719723571583E-3 0
1.863981197966646E-3 0
-1.0424189340199979E-3 0
-2.4343950097175495E-3 0
1.0284749773109492E-2 0
6.127297748249226E-3 0
-7.90490005616416E-3 0
-5.353555906128983E-3 0
-5.124003046124808E-3 0
-7.637785683093916E-3 0
6.415525199994204E-3 0
7.443056400614855E-3 0
-7.731302157208502E-3 0
4.506814904977358E-3 0
1.7155286231138283E-3 0
4.742551996521972E-3 0
4.252564427892504E-3 0
1.4976915423254588E-3 0
5.934660944837184E-3 0
-1.662106966047686E-4 0
5.927110012150273E-3 0
-4.0348124606129495E-4 0
5.579814052211176E-3 0
6.323994574300455E-4 0
3.8295338077979813E-3 0
5.057622332920376E-3 0
1.8531559068783792E-3 0
5.527169903510258E-3 0
-8.198612937879894E-3 0
-3.0896887645291034E-3 0
-3.1093461085944804E-3 0
-1.7425579636277976E-3 0
4.528273144611016E-3 0
-7.400599138935654E-4 0
-7.436951989432676E-4 0
4.3957004161422905E-3 0
-1.8280532016752321E-3 0
-3.009115215495441E-3 0
-2.132957152037498E-3 0
-4.2553989218379506E-4 0
1.8569125584435532E-3 0
-2.030368187565673E-3 0
1.6308484157952058E-3 0
-1.4781372399588447E-3 0
1.674807826313081E-3 0
-4.62722402863105E-4 0
4.8687324351250716E-1 0
-1.2708450389956088E-4 0
2.0366609728727195E-3 0
-1.155199075448712E-3 0
1.8281416104046805E-3 0
-2.267448277857692E-3 0
2.099359953615721E-3 0
-9.88657054724427E-4 0
-1.079875695518109E-2 0
7.3909780042774615E-3 0
6.019317177452431E-3 0
-7.756110121514185E-3 0
-5.078519807241912E-3 0
-4.832374649135635E-3 0
-7.527918440897987E-3 0
6.394682329756885E-3 0
7.473849913426838E-3 0
-7.74872730178989E-3 0
4.478276850533185E-3 0
1.7557732494721781E-3 0
5.377476273315673E-3 0
4.3794204319480045E-3 0
1.258798193647273E-3 0
5.676319444045881E-3 0
-3.9651476817187983E-4 0
5.95342441480766E-3 0
-7.014144815628236E-4 0
5.6024910173849115E-3 0
4.0823575554464563E-4 0
4.0178141137858555E-3 0
4.57486197826213E-3 0
1.6973712763387633E-3 0
4.78104936258776E-3 0
-1.0128655330198838E-3 0
-2.1928038627903905E-3 0
-3.0957166656452755E-3 0
-1.7637759362388087E-3 0
4.533760546843352E-3 0
-7.830217805609059E-4 0
-7.246199382613942E-4 0
4.4415491486425995E-3 0
-1.8426743552246107E-3 0
-3.1378520105142574E-3 0
-2.509686772407362E-3 0
-7.742544782955049E-4 0
1.7678555842125594E-3 0
-2.18489429593258E-3 0
1.6975492880421151E-3 0
-1.1582093587814471E-3 0
2.0260001396650434E-3 0
-1.2708450389956356E-4 0
4.869573848519092E-1 0
1.886320117215788E-5 0
1.946753065333037E-3 0
-1.1111045055635775E-3 0
1.9182205326117563E-3 0
-2.2369822832444403E-3 0
2.121418466423499E-3 0
5.8698541925996705E-3 0
-8.036812260797195E-3 0
7.4613731532054296E-3 0
6.0684708060949E-3 0
-7.518338023987514E-3 0
-4.877872125118751E-3 0
-4.742488103782211E-3 0
-7.465146266512035E-3 0
6.383053449463734E-3 0
7.485634133608853E-3 0
-7.803088119212202E-3 0
4.673718416651888E-3 0
2.0171520882644473E-3 0
5.480025284279976E-3 0
4.008270499806124E-3 0
1.0513629805145369E-3 0
5.5541918856174205E-3 0
-7.089961067833937E-4 0
6.000625732435441E-3 0
-1.0312337673359752E-3 0
5.751238894745492E-3 0
3.805957573637468E-6 0
3.91002424253386E-3 0
4.059718397828693E-3 0
1.5108859603674006E-3 0
2.691551019506679E-3 0
-7.296792108434199E-4 0
-2.1703034784627847E-3 0
-3.074455095670516E-3 0
-1.7992644893260758E-3 0
4.55799404503315E-3 0
-8.049140745176654E-4 0
-7.16272215067661E-4 0
4.4072712115966195E-3 0
-1.99977478227243E-3 0
-3.327434826372601E-3 0
-2.6602646043406815E-3 0
-9.162675228312381E-4 0
1.6921502224064445E-3 0
-1.9872455850624754E-3 0
1.9149613184523062E-3 0
-1.1137644753546536E-3 0
2.0366609728727156E-3 0
1.88632011721669E-5 0
4.8684740221674966E-1 0
1.9019918385880096E-4 0
1.8255453680497602E-3 0
-1.0277872407028787E-3 0
1.9433381069868068E-3 0
-2.1502514709008853E-3 0
1.5901642563733041E-3 0
4.328126745226838E-3 0
-8.16802265799752E-3 0
7.602370347550297E-3 0
6.09760358502377E-3 0
-7.392980639073563E-3 0
-4.779352662222065E-3 0
-4.806847599956039E-3 0
-7.456287171385035E-3 0
6.38039253618321E-3 0
7.4768722492886885E-3 0
-7.682483960116182E-3 0
5.3151665242484715E-3 0
1.8807364680920261E-3 0
5.2086518156247005E-3 0
3.808855723996703E-3 0
6.396365927335914E-4 0
5.603208711247536E-3 0
-1.0350550594449828E-3 0
6.1578629521971545E-3 0
-1.479576168841388E-3 0
5.894549363129882E-3 0
-5.460668677589036E-4 0
3.8630049315930256E-3 0
4.059933756890315E-3 0
-2.7315506465340066E-3 0
2.0392404177333877E-3 0
-7.328137022643144E-4 0
-2.1747910386492675E-3 0
-3.041223777300777E-3 0
-1.844208812059259E-3 0
4.596982156261298E-3 0
-8.348286354824985E-4 0
-7.116050205676199E-4 0
4.447013956693215E-3 0
-2.1314045178531093E-3 0
-3.2701821819908915E-3 0
-2.815019002672104E-3 0
-1.1026574251432008E-3 0
1.725986036745859E-3 0
-2.0591455980800235E-3 0
1.7820837740480473E-3 0
-1.155199075448713E-3 0
1.946753065333048E-3 0
1.9019918385876678E-4 0
4.866263908067306E-1 0
4.886920779888032E-4 0
1.6535085006630537E-3 0
-9.105116971227023E-4 0
2.0515749916675333E-3 0
5.523620929214185E-3 0
1.0044767127012871E-3 0
4.459134621998331E-3 0
-8.310523783162655E-3 0
7.769791429955114E-3 0
6.06296819405477E-3 0
-7.430445867350369E-3 0
-4.707920585654074E-3 0
-5.0220635213941815E-3 0
-7.615422734261742E-3 0
6.475675759309198E-3 0
7.7893934416682605E-3 0
-8.015601644864154E-3 0
5.577579507369677E-3 0
1.4552403505850293E-3 0
4.982319795837688E-3 0
3.8703742469881116E-3 0
4.152368976877848E-4 0
5.746738136907103E-3 0
-1.480321167933108E-3 0
6.358354306017364E-3 0
-2.0336044876995787E-3 0
6.108368646079234E-3 0
-9.25451596785539E-4 0
3.7459737851952657E-3 0
2.9587647074973194E-3 0
-2.051571885886924E-3 0
2.0912554180843594E-3 0
-7.306737119846787E-4 0
-2.213087489228875E-3 0
-2.982238492178574E-3 0
-1.8965948969919114E-3 0
4.657510360611819E-3 0
-8.702297507100799E-4 0
-6.79382090637824E-4 0
4.7220806642456785E-3 0
-2.085403452433056E-3 0
-3.452825933195215E-3 0
-2.879518402605471E-3 0
-1.3116721951380462E-3 0
1.587031256795577E-3 0
-2.2201719723571587E-3 0
1.828141610404684E-3 0
-1.1111045055635664E-3 0
1.8255453680497374E-3 0
4.886920779887998E-4 0
4.8622914190505917E-1 0
9.551308651749224E-4 0
1.5151470777059158E-3 0
-1.0526752636157257E-3 0
4.264214896900678E-3 0
4.1072571824878465E-3 0
7.919540577415813E-4 0
4.6651772813133185E-3 0
-8.519124101181589E-3 0
7.921660399435908E-3 0
6.043089961182235E-3 0
-7.761268665623593E-3 0
-4.697861373289957E-3 0
-5.264360082608486E-3 0
-8.03408999936986E-3 0
6.399840446318089E-3 0
8.458696006339347E-3 0
-8.162652935421084E-3 0
5.902077943117841E-3 0
1.8268193647149262E-3 0
5.0424301181015724E-3 0
4.002759825917168E-3 0
-6.684814653441121E-7 0
5.897804011412434E-3 0
-2.0295832303944368E-3 0
6.624515855118736E-3 0
-2.5636428362015577E-3 0
6.174725123042893E-3 0
-6.746301052475692E-4 0
-1.857003764889178E-3 0
2.239946691674838E-3 0
-2.106061529814221E-3 0
2.1274933219887285E-3 0
-7.051626443710192E-4 0
-2.2852812757580493E-3 0
-2.9147497165994975E-3 0
-1.938209462718091E-3 0
4.790288640262666E-3 0
-8.866337499828237E-4 0
-7.245952165290571E-4 0
4.916576720261371E-3 0
-2.429506768078773E-3 0
-3.6340097658865505E-3 0
-2.640521717366855E-3 0
-1.22898600623589E-3 0
1.8639811979666392E-3 0
-2.267448277857683E-3 0
1.9182205326117466E-3 0
-1.0277872407028702E-3 0
1.653508500663052E-3 0
9.551308651749524E-4 0
4.855967580325075E-1 0
1.5003719436139096E-3 0
1.8515535327567633E-3 0
-4.390704900505935E-4 0
2.9716711598803992E-3 0
4.272467433369387E-3 0
5.398350426244037E-4 0
4.917168865868437E-3 0
-8.793441752499244E-3 0
7.9988493158626E-3 0
6.210354432048216E-3 0
-8.320344848700699E-3 0
-4.844285212342661E-3 0
-5.209082966605301E-3 0
-7.924631093168119E-3 0
7.183144954630981E-3 0
8.86517231862826E-3 0
-8.003484767716881E-3 0
6.289493304038614E-3 0
1.7533362362373603E-3 0
4.531393959138708E-3 0
3.906439204806656E-3 0
-5.370919325876364E-4 0
6.11834301090848E-3 0
-2.5587663872388045E-3 0
6.9556808633295004E-3 0
-2.8034031005574472E-3 0
5.987238839776524E-3 0
3.509866612488166E-3 0
-1.3676801158179746E-3 0
2.2231888726630252E-3 0
-2.0808285452450807E-3 0
2.0504169330871802E-3 0
-5.913018473607069E-4 0
-2.3634728082489657E-3 0
-2.941100701444111E-3 0
-2.050036396155105E-3 0
4.899009910887407E-3 0
-6.541534113956585E-4 0
-1.0341447811726414E-3 0
5.135373356299858E-3 0
-2.2812242081874635E-3 0
-3.5210673495681545E-3 0
-2.385350014093373E-3 0
-1.0424189340199907E-3 0
2.0993599536157145E-3 0
-2.236982283244434E-3 0
1.9433381069868048E-3 0
-9.10511697122687E-4 0
1.5151470777059121E-3 0
1.500371943613898E-3 0
4.851878966735052E-1 0
8.411972301299808E-4 0
6.992814866412769E-3 0
-1.4716484034127302E-4 0
2.7787754654212647E-3 0
4.447798354108829E-3 0
4.331432535031729E-4 0
5.057034156642399E-3 0
-8.892103311256516E-3 0
7.574721523013581E-3 0
6.749648845109264E-3 0
-8.457741633145182E-3 0
-5.341878515700758E-3 0
-4.810820624438543E-3 0
-8.2404419415221E-3 0
6.820653758005577E-3 0
9.123506877023669E-3 0
-8.221177057337254E-3 0
5.441546061064663E-3 0
1.6571218933845837E-3 0
4.0590705648283504E-3 0
3.874877093421026E-3 0
-9.131892779936739E-4 0
6.182039059398935E-3 0
-2.8003460721634436E-3 0
6.810452026597152E-3 0
-2.304495315805774E-3 0
-2.1620711417321981E-4 0
2.4837647136851018E-3 0
-1.1879377238707342E-3 0
2.099469523762235E-3 0
-1.960454254509357E-3 0
1.9529729125295323E-3 0
-5.927592039918099E-4 0
-2.421394035517181E-3 0
-3.1028584719926615E-3 0
-2.0439353283226635E-3 0
4.955129275912338E-3 0
-3.4652834828142884E-4 0
-9.339373824849815E-4 0
4.975389578581138E-3 0
-2.1356912534564627E-3 0
-3.604852916726072E-3 0
-2.4343950097175577E-3 0
-9.886570547244225E-4 0
2.121418466423499E-3 0
-2.1502514709008896E-3 0
2.051574991667534E-3 0
-1.0526752636157142E-3 0
1.8515535327567477E-3 0
8.411972301299772E-4 0
4.853881257950896E-1 0
-1.921346458729075E-3 0
5.014137396183256E-3 0
4.341854411543967E-5 0
2.9396869640179965E-3 0
4.468564013956616E-3 0
8.18681795216613E-4 0
4.877606483312059E-3 0
-8.530453109895716E-3 0
7.426881682499992E-3 0
6.854873555031239E-3 0
-8.556753890989973E-3 0
-5.782860894876252E-3 0
-5.390506287554748E-3 0
-8.663132857594437E-3 0
6.638134625082479E-3 0
9.164207281561407E-3 0
-8.213666143336755E-3 0
4.765494241950714E-3 0
1.512079325848504E-3 0
4.068752514656753E-3 0
3.7544741070713286E-3 0
-6.69085667051922E-4 0
5.989766481528021E-3 0
-2.3037877527867564E-3 0
6.31773196320138E-3 0
9.643309658935582E-3 0
-1.5327088558856115E-3 0
6.420181660860497E-3 0
-5.2462911901122187E-5 0
4.155304257399864E-3 0
5.481389318857143E-3 0
1.695512872869974E-3 0
5.762585937642804E-3 0
-1.0717918134310497E-2 0
1.023765807410191E-2 0
8.710601986860154E-3 0
-1.0660014068932348E-2 0
-7.586387569621681E-3 0
-7.5863875696216285E-3 0
-1.0655692869790241E-2 0
8.690980833139456E-3 0
1.02847497731095E-2 0
-1.079875695518109E-2 0
5.86985419259967E-3 0
1.5901642563733082E-3 0
5.5236209292141856E-3 0
4.2642148969006715E-3 0
-4.390704900505895E-4 0
6.992814866412772E-3 0
-1.9213464587290742E-3 0
6.445545921190607E-1 0
-1.4747839204392592E-2 0
-1.907255438932223E-2 0
1.3262748858852093E-2 0
-1.885499621307528E-2 0
1.9545507091971014E-2 0
-1.824134069104929E-2 0
4.638468777349491E-3 0
1.3781243444085675E-2 0
2.006361467194918E-2 0
1.682555058781783E-2 0
-4.0461105033056506E-2 0
1.069280786573417E-2 0
1.0692807865734073E-2 0
-4.0436056489937755E-2 0
1.671181333599334E-2 0
2.035009488546326E-2 0
1.322166642729262E-2 0
5.600692783426263E-3 0
-1.977438955300842E-2 0
2.1849985459818633E-2 0
-2.203753020082649E-2 0
1.714770281691721E-2 0
-2.256711567146961E-2 0
-1.404848796213331E-2 0
-1.5327088558850285E-3 0
5.06314329108138E-3 0
-1.135074657005408E-3 0
4.710514799533426E-3 0
5.700514935954666E-5 0
3.0917516669111285E-3 0
4.077332889784758E-3 0
1.402128851864525E-3 0
4.458220599749105E-3 0
-7.454517144790584E-3 0
7.986377538595981E-3 0
6.499771284326665E-3 0
-8.341824182050674E-3 0
-5.159669118158537E-3 0
-5.099928635171179E-3 0
-7.993751438578217E-3 0
6.127297748249225E-3 0
7.390978004277459E-3 0
-8.036812260797195E-3 0
4.328126745226835E-3 0
1.0044767127012934E-3 0
4.1072571824878395E-3 0
2.9716711598803953E-3 0
-1.4716484034127443E-4 0
5.0141373961832564E-3 0
-1.4747839204392585E-2 0
5.768799949510193E-1 0
-1.0783042865341168E-2 0
-1.3898924706705638E-2 0
9.838114587240696E-3 0
-1.3542585451372012E-2 0
1.4445956455243759E-2 0
-1.3089766342352491E-2 0
3.8168044029233024E-3 0
1.0806575838003783E-2 0
1.6113778345765977E-2 0
1.3441716547418174E-2 0
-3.090365523305727E-2 0
8.29615601965557E-3 0
6.940415013621165E-3 0
-3.0734952663638782E-2 0
1.1499112653287711E-2 0
1.4541224676619008E-2 0
9.30133000537516E-3 0
4.184459506009012E-3 0
-1.4951820553084125E-2 0
1.6550348859274207E-2 0
-1.6911234071012766E-2 0
1.2997709567251462E-2 0
-1.6235096319788075E-2 0
6.42018166085951E-3 0
-1.1343829019505385E-3 0
5.099470060441066E-3 0
-1.0895038167568238E-3 0
4.769007060250174E-3 0
1.3960138175594084E-4 0
3.222086587608218E-3 0
4.287928256313059E-3 0
1.751559296096186E-3 0
4.927827532021028E-3 0
-6.8534047002667305E-3 0
8.06127652731117E-3 0
6.875885608402689E-3 0
-7.831800472226605E-3 0
-5.105842791419925E-3 0
-5.4463614250704435E-3 0
-7.904900056164158E-3 0
6.019317177452432E-3 0
7.461373153205437E-3 0
-8.168022657997515E-3 0
4.4591346219983365E-3 0
7.919540577415844E-4 0
4.272467433369383E-3 0
2.778775465421266E-3 0
4.3418544115437314E-5 0
-1.9072554389322236E-2 0
-1.078304286534117E-2 0
5.769342636824065E-1 0
-1.0710715550283224E-2 0
-1.380532498344991E-2 0
9.96122314882404E-3 0
-1.3370928791651634E-2 0
1.469526165319033E-2 0
-1.2692063918919937E-2 0
4.34148375321161E-3 0
1.125661879033289E-2 0
1.5645484673502824E-2 0
1.361095199794155E-2 0
-3.0778675505588177E-2 0
7.821300192105184E-3 0
7.49734252346822E-3 0
-2.9914187977285678E-2 0
1.1744615319187933E-2 0
1.4603946389422622E-2 0
9.24686531495314E-3 0
4.299996283235814E-3 0
-1.5300615318346493E-2 0
1.7020995542443764E-2 0
-1.6781324811913193E-2 0
1.171257478229992E-2 0
-5.246291190027438E-5 0
4.7130080749501115E-3 0
-1.0866829703464914E-3 0
5.156611838452586E-3 0
-1.0167858323898845E-3 0
4.872111818732195E-3 0
3.004337080760403E-4 0
3.4722036815050487E-3 0
4.679533014732319E-3 0
2.2403345937589067E-3 0
5.487223344679287E-3 0
-6.878550303603503E-3 0
8.31807610522131E-3 0
7.181897039227982E-3 0
-7.749828189684916E-3 0
-5.486760419501231E-3 0
-5.353555906128987E-3 0
-7.756110121514178E-3 0
6.068470806094898E-3 0
7.602370347550302E-3 0
-8.310523783162655E-3 0
4.665177281313323E-3 0
5.398350426244078E-4 0
4.4477983541088275E-3 0
2.9396869640179956E-3 0
1.3262748858852102E-2 0
-1.3898924706705614E-2 0
-1.0710715550283223E-2 0
5.770230376176771E-1 0
-1.0604487930020903E-2 0
-1.3676875791998562E-2 0
1.0122974019128504E-2 0
-1.3162768812366187E-2 0
1.4971493127489417E-2 0
-1.2388087614343762E-2 0
5.046237357548955E-3 0
1.1912061788833623E-2 0
1.6842795247820855E-2 0
1.393967355214837E-2 0
-2.950639292106647E-2 0
7.582999415776523E-3 0
7.941707276110281E-3 0
-2.9687566921740936E-2 0
1.2035211542842584E-2 0
1.4525115395831605E-2 0
9.330990307949014E-3 0
4.309144044804922E-3 0
-1.5545283163312286E-2 0
1.6774528343486857E-2 0
-1.57387997240895E-2 0
4.155304257399383E-3 0
6.225896333897777E-5 0
4.7763521356064985E-3 0
-1.0117334356364047E-3 0
5.248686622547428E-3 0
-8.944513376754377E-4 0
5.045180275042877E-3 0
5.376684352927817E-4 0
3.7763036176391156E-3 0
4.94894168826358E-3 0
2.32830300405574E-3 0
5.064700739680881E-3 0
-7.622296915653388E-3 0
8.311979352708878E-3 0
6.415118428265951E-3 0
-7.919141179762152E-3 0
-5.124003046124809E-3 0
-5.078519807241912E-3 0
-7.51833802398752E-3 0
6.097603585023772E-3 0
7.769791429955121E-3 0
-8.519124101181583E-3 0
4.917168865868438E-3 0
4.3314325350317953E-4 0
4.468564013956612E-3 0
-1.8854996213075282E-2 0
9.838114587240689E-3 0
-1.3805324983449876E-2 0
-1.060448793002091E-2 0
5.771372347223439E-1 0
-1.0483728321314516E-2 0
-1.3546412259237195E-2 0
1.0267383388301415E-2 0
-1.2976733577888729E-2 0
1.5222174327001995E-2 0
-1.1925286547834793E-2 0
5.130992011754735E-3 0
1.2519024609765193E-2 0
1.699774950907378E-2 0
1.2871546704368252E-2 0
-2.938691908389835E-2 0
8.015095603962356E-3 0
8.255309881027672E-3 0
-2.971701067865833E-2 0
1.2337843901371935E-2 0
1.429661203799691E-2 0
9.627238621996747E-3 0
4.117481554692824E-3 0
-1.4947981202846987E-2 0
1.5827395922217727E-2 0
5.481389318857286E-3 0
3.0999608084513247E-3 0
1.516185877938218E-4 0
4.881958753277562E-3 0
-8.903350558199747E-4 0
5.39044624105377E-3 0
-7.259550285660485E-4 0
5.232814688960773E-3 0
6.971478315486264E-4 0
3.7987959447363284E-3 0
4.60173485642818E-3 0
1.8972560348904245E-3 0
5.171885995093241E-3 0
-7.810479505895953E-3 0
7.759462812451265E-3 0
6.5687904624295215E-3 0
-7.637785683093915E-3 0
-4.832374649135635E-3 0
-4.877872125118751E-3 0
-7.3929806390735705E-3 0
6.062968194054772E-3 0
7.921660399435917E-3 0
-8.793441752499244E-3 0
5.0570341566424015E-3 0
8.186817952166149E-4 0
1.9545507091971014E-2 0
-1.3542585451372019E-2 0
9.961223148824019E-3 0
-1.3676875791998543E-2 0
-1.0483728321314547E-2 0
5.772459267625828E-1 0
-1.0383865622595325E-2 0
-1.3456174961157906E-2 0
1.033113205110525E-2 0
-1.2985461456745723E-2 0
1.480285072581899E-2 0
-1.2497277856688452E-2 0
5.022140104469562E-3 0
1.1987249077006936E-2 0
1.5882651780565568E-2 0
1.306268207107967E-2 0
-2.9062009114469347E-2 0
8.105007689992482E-3 0
8.52983266275595E-3 0
-2.989577202643652E-2 0
1.2691694837438707E-2 0
1.3849541876529318E-2 0
1.0141939490780677E-2 0
3.266300619304926E-3 0
-1.425598583828264E-2 0
1.6955128728700572E-3 0
4.085712287576611E-3 0
3.233935734748721E-3 0
3.096052439685162E-4 0
5.048409052455664E-3 0
-7.268169932860783E-4 0
5.5467904732462445E-3 0
-5.856100880526388E-4 0
5.325867545380421E-3 0
7.254436738419412E-4 0
3.924090383583726E-3 0
5.042362209157548E-3 0
2.289191183854519E-3 0
4.988129672800695E-3 0
-7.6769842199528645E-3 0
7.446203847787121E-3 0
6.415525199994207E-3 0
-7.527918440897991E-3 0
-4.742488103782215E-3 0
-4.779352662222072E-3 0
-7.430445867350364E-3 0
6.043089961182227E-3 0
7.998849315862599E-3 0
-8.892103311256516E-3 0
4.877606483312058E-3 0
-1.824134069104929E-2 0
1.444595645524376E-2 0
-1.3370928791651634E-2 0
1.0122974019128496E-2 0
-1.3546412259237181E-2 0
-1.0383865622595353E-2 0
5.773327485444345E-1 0
-1.0298752570516238E-2 0
-1.344658889100883E-2 0
1.0151136676828898E-2 0
-1.3592990182352908E-2 0
1.4672511669329223E-2 0
-1.2972973911842578E-2 0
4.595001598115288E-3 0
1.122505346297058E-2 0
1.573393028779362E-2 0
1.2698897736473645E-2 0
-2.9035742677806693E-2 0
8.00473465752389E-3 0
8.71558367580779E-3 0
-3.0201830499742344E-2 0
1.3107677894275777E-2 0
1.3301870706133053E-2 0
1.066563660544731E-2 0
3.0920983999405166E-3 0
5.7625859376426065E-3 0
1.403332391725024E-3 0
4.2871464582291685E-3 0
3.4685618731772135E-3 0
5.331716000526839E-4 0
5.228436261586896E-3 0
-5.894455373382517E-4 0
5.659494515924506E-3 0
-4.7580283043374206E-4 0
5.479905285685589E-3 0
1.1120884301987724E-3 0
4.308186559212562E-3 0
5.368653672444172E-3 0
2.1031025810558917E-3 0
4.417523001852503E-3 0
-7.85785362075513E-3 0
7.443056400614847E-3 0
6.394682329756885E-3 0
-7.465146266512037E-3 0
-4.80684759995605E-3 0
-4.707920585654082E-3 0
-7.7612686656236005E-3 0
6.210354432048209E-3 0
7.574721523013581E-3 0
-8.530453109895721E-3 0
4.638468777349496E-3 0
-1.3089766342352498E-2 0
1.4695261653190345E-2 0
-1.3162768812366185E-2 0
1.0267383388301408E-2 0
-1.3456174961157889E-2 0
-1.0298752570516214E-2 0
5.775000453081981E-1 0
-1.0057112271904901E-2 0
-1.3216146818875072E-2 0
1.0250372137404574E-2 0
-1.3015962748143204E-2 0
1.596140566717905E-2 0
-1.3384549572097245E-2 0
4.0971858094049135E-3 0
1.06691725624991E-2 0
1.4777304137126879E-2 0
1.224339855604707E-2 0
-2.9219701501058154E-2 0
7.94151042942755E-3 0
8.931006399520955E-3 0
-3.0696208736322388E-2 0
1.3498352161279679E-2 0
1.3194816881159683E-2 0
1.0785571133773784E-2 0
-1.071791813431029E-2 0
4.443139654375503E-3 0
1.7118157589506456E-3 0
4.6360142091846105E-3 0
3.7611784959224004E-3 0
7.041213718814188E-4 0
5.3265605840053755E-3 0
-4.833646830965062E-4 0
5.796338427234433E-3 0
-3.248560228304343E-4 0
5.6179735389708125E-3 0
1.0651597994631122E-3 0
4.421555701327034E-3 0
5.339499436212135E-3 0
1.948349319837238E-3 0
4.506203902791158E-3 0
-7.731302157208511E-3 0
7.473849913426832E-3 0
6.383053449463737E-3 0
-7.456287171385031E-3 0
-5.022063521394185E-3 0
-4.697861373289956E-3 0
-8.320344848700702E-3 0
6.749648845109257E-3 0
7.42688168249999E-3 0
1.378124344408567E-2 0
3.8168044029233115E-3 0
-1.269206391891995E-2 0
1.4971493127489417E-2 0
-1.2976733577888715E-2 0
1.0331132051105234E-2 0
-1.3446588891008839E-2 0
-1.0057112271904863E-2 0
5.78232798948443E-1 0
-8.835291438536078E-3 0
-1.1692763577676395E-2 0
1.162500389879811E-2 0
-1.3188414438875046E-2 0
1.5648582099992394E-2 0
-1.3588009759998843E-2 0
2.4340145515642487E-3 0
9.187665318864172E-3 0
1.4013524418658904E-2 0
1.2359470352873296E-2 0
-2.913668334042145E-2 0
7.892376492218696E-3 0
9.186068563048875E-3 0
-3.1629230443266765E-2 0
1.4093284880752082E-2 0
1.396826249799407E-2 0
1.0237658074101798E-2 0
-7.469441233436179E-3 0
4.8431071747570935E-3 0
2.1403981564350524E-3 0
4.933449858789567E-3 0
3.839816343577559E-3 0
7.326539408636832E-4 0
5.454258428258628E-3 0
-3.1786478637438006E-4 0
5.884316537265997E-3 0
-3.6920234193358947E-4 0
5.6017095113180156E-3 0
1.2458607199262507E-3 0
4.505383434960552E-3 0
5.069654701054269E-3 0
1.9384427103408524E-3 0
4.506814904977355E-3 0
-7.748727301789895E-3 0
7.4856341336088554E-3 0
6.380392536183216E-3 0
-7.615422734261736E-3 0
-5.264360082608489E-3 0
-4.844285212342666E-3 0
-8.457741633145185E-3 0
6.854873555031238E-3 0
2.0063614671949233E-2 0
1.0806575838003788E-2 0
4.341483753211607E-3 0
-1.2388087614343773E-2 0
1.5222174327001983E-2 0
-1.2985461456745735E-2 0
1.0151136676828876E-2 0
-1.3216146818875077E-2 0
-8.835291438536057E-3 0
5.805078059365624E-1 0
-6.75472472637733E-3 0
-1.0972612077518887E-2 0
1.2159717860119065E-2 0
-1.3560221065765635E-2 0
1.366189880063303E-2 0
-1.5459426068551553E-2 0
1.0473230399253525E-3 0
9.318703334833763E-3 0
1.4483532048170662E-2 0
1.3121982480723908E-2 0
-2.9429381135216145E-2 0
7.942326942834914E-3 0
9.260128388124678E-3 0
-3.23855258574163E-2 0
1.3652321575987862E-2 0
8.710601986860248E-3 0
8.096561341919386E-3 0
-6.995540507551038E-3 0
5.309856454571166E-3 0
2.358344079510947E-3 0
4.718165662450398E-3 0
3.915321515310154E-3 0
1.0189535126555742E-3 0
5.679543657153321E-3 0
-1.6447849037379148E-4 0
5.91881784309152E-3 0
-3.286970262522695E-4 0
6.12310347162493E-3 0
1.7784923256625115E-3 0
4.59303248986582E-3 0
4.982483516312827E-3 0
1.7155286231138203E-3 0
4.478276850533187E-3 0
-7.803088119212207E-3 0
7.476872249288691E-3 0
6.475675759309196E-3 0
-8.034089999369857E-3 0
-5.209082966605302E-3 0
-5.341878515700762E-3 0
-8.556753890989973E-3 0
1.6825550587817865E-2 0
1.6113778345765977E-2 0
1.1256618790332889E-2 0
5.0462373575489595E-3 0
-1.19252865478348E-2 0
1.480285072581901E-2 0
-1.3592990182352887E-2 0
1.0250372137404583E-2 0
-1.1692763577676414E-2 0
-6.754724726377325E-3 0
5.842699312053574E-1 0
-4.349899176457295E-3 0
-1.1690774481978104E-2 0
1.2549372831508664E-2 0
-1.6005704552159356E-2 0
9.689916933956207E-3 0
-1.5399919514308054E-2 0
2.253660126504427E-3 0
1.1042978591031611E-2 0
1.5082152112687446E-2 0
1.4048902951231127E-2 0
-3.063782162082321E-2 0
8.51192796816103E-3 0
7.47016628435399E-3 0
-3.2679707457250864E-2 0
-1.0660014068932392E-2 0
6.768930649409174E-3 0
8.031089685654863E-3 0
-6.915383568815384E-3 0
5.13248035722686E-3 0
1.9337353217080487E-3 0
4.937043441522389E-3 0
4.1556185836961294E-3 0
1.1831137329703192E-3 0
5.970710796656426E-3 0
3.695865386590742E-4 0
6.572241698838706E-3 0
4.187475126735186E-4 0
6.955060565284048E-3 0
1.4494986222331346E-3 0
3.8791404318471987E-3 0
4.742551996521967E-3 0
1.7557732494721864E-3 0
4.67371841665189E-3 0
-7.682483960116185E-3 0
7.789393441668259E-3 0
6.399840446318085E-3 0
-7.924631093168117E-3 0
-4.81082062443854E-3 0
-5.782860894876249E-3 0
-4.0461105033056506E-2 0
1.3441716547418181E-2 0
1.5645484673502824E-2 0
1.1912061788833616E-2 0
5.130992011754741E-3 0
-1.249727785668846E-2 0
1.4672511669329197E-2 0
-1.3015962748143223E-2 0
1.162500389879811E-2 0
-1.097261207751888E-2 0
-4.349899176457336E-3 0
5.840731983877862E-1 0
-5.74490542603273E-3 0
-9.614410544627819E-3 0
9.71759469386413E-3 0
-1.60022651318864E-2 0
1.3635881550792992E-2 0
-1.3502745314799877E-2 0
3.876641332074133E-3 0
1.171945572670903E-2 0
1.4883809576447426E-2 0
1.4629528002623132E-2 0
-3.211040809560195E-2 0
1.0465603235893356E-2 0
6.1260650599111845E-3 0
-7.586387569621808E-3 0
-8.175939430601836E-3 0
6.937343895889382E-3 0
8.395686638079502E-3 0
-7.587639475612877E-3 0
5.12315770765575E-3 0
2.1925007850621494E-3 0
5.284863732100362E-3 0
4.491871624296247E-3 0
1.4405956448514403E-3 0
6.736310654456548E-3 0
9.033267834803055E-4 0
7.893443484023266E-3 0
8.647616977640748E-4 0
6.465308328622917E-3 0
1.188773890949619E-3 0
4.252564427892511E-3 0
5.377476273315682E-3 0
2.0171520882644447E-3 0
5.315166524248471E-3 0
-8.015601644864145E-3 0
8.458696006339353E-3 0
7.183144954630979E-3 0
-8.2404419415221E-3 0
-5.390506287554752E-3 0
1.0692807865734165E-2 0
-3.090365523305727E-2 0
1.3610951997941552E-2 0
1.6842795247820862E-2 0
1.2519024609765192E-2 0
5.022140104469565E-3 0
-1.2972973911842569E-2 0
1.596140566717905E-2 0
-1.3188414438875043E-2 0
1.2159717860119065E-2 0
-1.1690774481978104E-2 0
-5.744905426032725E-3 0
5.937675751672252E-1 0
-4.068475343645269E-3 0
-9.620484254717773E-3 0
1.2576951564959818E-2 0
-1.3623936131047874E-2 0
1.5745531407566172E-2 0
-1.3470997588437431E-2 0
4.560354501355456E-3 0
1.2376247150727028E-2 0
1.5913703428341256E-2 0
1.632718362571509E-2 0
-3.4014167503010444E-2 0
1.0441357846529041E-2 0
-7.5863875696214E-3 0
-5.325553869607423E-3 0
-7.8932587597132E-3 0
7.104286506369715E-3 0
8.277321912668407E-3 0
-7.7617512184584795E-3 0
5.084820071593083E-3 0
2.1868925213996923E-3 0
5.269183513242931E-3 0
4.310648510035368E-3 0
1.1652851428308943E-3 0
6.470481294477268E-3 0
8.647616977640868E-4 0
7.893443484023266E-3 0
9.083020526022066E-4 0
6.713719582619366E-3 0
1.497691542325462E-3 0
4.3794204319480105E-3 0
5.480025284279974E-3 0
1.8807364680920248E-3 0
5.5775795073696715E-3 0
-8.162652935421087E-3 0
8.865172318628255E-3 0
6.82065375800558E-3 0
-8.663132857594427E-3 0
1.0692807865734072E-2 0
8.296156019655561E-3 0
-3.0778675505588188E-2 0
1.393967355214836E-2 0
1.6997749509073786E-2 0
1.198724907700694E-2 0
4.595001598115287E-3 0
-1.3384549572097245E-2 0
1.5648582099992397E-2 0
-1.356022106576563E-2 0
1.2549372831508665E-2 0
-9.614410544627822E-3 0
-4.068475343645267E-3 0
5.937675751672252E-1 0
-5.730585435601955E-3 0
-1.1755796880687275E-2 0
1.2317991084733993E-2 0
-1.3471236665224543E-2 0
1.6372628550974E-2 0
-1.347260993358322E-2 0
5.494490854046147E-3 0
1.2275145257099138E-2 0
1.637153082257388E-2 0
1.48321868871126E-2 0
-3.332875429651509E-2 0
-1.0655692869790439E-2 0
-5.3690858597280015E-3 0
-5.075659361213836E-3 0
-7.712998684265403E-3 0
6.347339748268332E-3 0
7.722986452758417E-3 0
-7.571664641911935E-3 0
4.570089930899574E-3 0
1.8303955882393202E-3 0
4.7006549844612E-3 0
3.8947412503330826E-3 0
1.4494686852114106E-3 0
6.949865189032946E-3 0
4.2374519219216675E-4 0
6.565813005897381E-3 0
3.8477344520394027E-4 0
5.934660944837189E-3 0
1.2587981936472811E-3 0
4.008270499806121E-3 0
5.208651815624697E-3 0
1.455240350585027E-3 0
5.902077943117844E-3 0
-8.003484767716881E-3 0
9.123506877023672E-3 0
6.6381346250824775E-3 0
-4.043605648993777E-2 0
6.940415013621155E-3 0
7.821300192105184E-3 0
-2.9506392921066472E-2 0
1.2871546704368254E-2 0
1.588265178056556E-2 0
1.122505346297058E-2 0
4.097185809404907E-3 0
-1.3588009759998836E-2 0
1.3661898800633019E-2 0
-1.6005704552159387E-2 0
9.717594693864113E-3 0
-9.62048425471778E-3 0
-5.730585435601959E-3 0
5.840376015414082E-1 0
-4.2535277486198605E-3 0
-1.1180278553265146E-2 0
1.1991676173256303E-2 0
-1.358077051779423E-2 0
1.5456953129256663E-2 0
-1.3485196362207987E-2 0
6.235726795857048E-3 0
1.0830774016583515E-2 0
1.6475566604630263E-2 0
1.3827292445780818E-2 0
8.690980833139442E-3 0
-8.103944961328517E-3 0
-5.304210127506268E-3 0
-5.3093764574030115E-3 0
-7.94918651231894E-3 0
6.452346365290181E-3 0
7.454969036272693E-3 0
-7.764713951536338E-3 0
4.444632867804503E-3 0
1.7337117356210434E-3 0
4.982518364261585E-3 0
4.577559930994819E-3 0
1.8020828320721857E-3 0
6.100410641496796E-3 0
-3.136537285650863E-4 0
5.914097315440981E-3 0
-1.6621069660477953E-4 0
5.6763194440458695E-3 0
1.0513629805145423E-3 0
3.8088557239967058E-3 0
4.982319795837693E-3 0
1.8268193647149268E-3 0
6.28949330403861E-3 0
-8.221177057337256E-3 0
9.164207281561417E-3 0
1.671181333599338E-2 0
-3.073495266363878E-2 0
7.497342523468224E-3 0
7.5829994157765165E-3 0
-2.9386919083898358E-2 0
1.306268207107967E-2 0
1.5733930287793615E-2 0
1.0669172562499109E-2 0
2.434014551564253E-3 0
-1.5459426068551529E-2 0
9.689916933956204E-3 0
-1.600226513188642E-2 0
1.2576951564959821E-2 0
-1.175579688068728E-2 0
-4.253527748619838E-3 0
5.841286744699563E-1 0
-6.540493168019505E-3 0
-1.2018935797877566E-2 0
1.0752603585655057E-2 0
-1.4359785776805257E-2 0
1.5910350811074808E-2 0
-1.3352686721954441E-2 0
6.579919212918759E-3 0
1.0056575239007314E-2 0
1.7505915572348863E-2 0
1.0284749773109675E-2 0
6.1422453123784505E-3 0
-7.820217289097594E-3 0
-5.253660892770454E-3 0
-5.108500953808886E-3 0
-7.6787739019118775E-3 0
6.4083238410539665E-3 0
7.468691749448296E-3 0
-7.738291356070276E-3 0
4.506831016826749E-3 0
1.9201653766966688E-3 0
5.1112252757241445E-3 0
4.447055950069187E-3 0
1.303200020148781E-3 0
5.565989234324789E-3 0
-3.7085457309546464E-4 0
5.9271100121502576E-3 0
-3.9651476817187674E-4 0
5.5541918856174E-3 0
6.396365927335878E-4 0
3.8703742469881025E-3 0
5.04243011810157E-3 0
1.7533362362373748E-3 0
5.441546061064669E-3 0
-8.213666143336767E-3 0
2.0350094885463303E-2 0
1.1499112653287721E-2 0
-2.9914187977285674E-2 0
7.94170727611028E-3 0
8.015095603962344E-3 0
-2.906200911446935E-2 0
1.2698897736473636E-2 0
1.4777304137126893E-2 0
9.18766531886419E-3 0
1.0473230399253577E-3 0
-1.5399919514308063E-2 0
1.3635881550792988E-2 0
-1.362393613104788E-2 0
1.2317991084733988E-2 0
-1.1180278553265142E-2 0
-6.540493168019496E-3 0
5.803122433335257E-1 0
-8.654916111581056E-3 0
-1.3461828543602068E-2 0
1.0639829880360099E-2 0
-1.3954305698976727E-2 0
1.6836695926785626E-2 0
-1.450313872389435E-2 0
6.253839735557934E-3 0
1.0451840569665374E-2 0
-1.0798756955181234E-2 0
7.406017906065129E-3 0
6.059127315127874E-3 0
-7.712517945601268E-3 0
-5.063412531877094E-3 0
-4.8394048397100925E-3 0
-7.528627154975034E-3 0
6.4022644621919275E-3 0
7.4738472327977815E-3 0
-7.741758783267457E-3 0
4.540013858940581E-3 0
1.8742990695898459E-3 0
5.4482059013611734E-3 0
4.308690803902511E-3 0
1.1402725758130842E-3 0
5.61458151713526E-3 0
-4.034812460613121E-4 0
5.953424414807654E-3 0
-7.089961067833686E-4 0
5.603208711247538E-3 0
4.1523689768779056E-4 0
4.0027598259171765E-3 0
4.531393959138689E-3 0
1.6571218933845798E-3 0
4.765494241950717E-3 0
1.322166642729262E-2 0
1.4541224676619018E-2 0
1.174461531918793E-2 0
-2.9687566921740953E-2 0
8.255309881027682E-3 0
8.105007689992474E-3 0
-2.9035742677806696E-2 0
1.224339855604709E-2 0
1.4013524418658904E-2 0
9.318703334833757E-3 0
2.253660126504416E-3 0
-1.3502745314799884E-2 0
1.574553140756617E-2 0
-1.3471236665224536E-2 0
1.1991676173256308E-2 0
-1.201893579787755E-2 0
-8.65491611158108E-3 0
5.782660529115039E-1 0
-1.0246376135892752E-2 0
-1.3341317122788366E-2 0
1.071914085476221E-2 0
-1.429423288086023E-2 0
1.750351455866507E-2 0
-1.5706731804556957E-2 0
5.7560957640390336E-3 0
5.869854192599776E-3 0
-8.037958084958274E-3 0
7.462058829880275E-3 0
6.07200675321985E-3 0
-7.5138164823275195E-3 0
-4.873413149482116E-3 0
-4.738630542803594E-3 0
-7.4651753944031075E-3 0
6.375492120027925E-3 0
7.460000444998756E-3 0
-7.896502996361006E-3 0
4.5203609019228725E-3 0
1.9328258294228264E-3 0
5.564351543121596E-3 0
4.1616269667055636E-3 0
1.1447826155151478E-3 0
5.579814052211167E-3 0
-7.014144815628284E-4 0
6.000625732435467E-3 0
-1.035055059444968E-3 0
5.746738136907114E-3 0
-6.684814653572292E-7 0
3.906439204806654E-3 0
4.059070564828343E-3 0
1.5120793258485057E-3 0
5.600692783426273E-3 0
9.301330005375147E-3 0
1.4603946389422634E-2 0
1.2035211542842577E-2 0
-2.9717010678658336E-2 0
8.529832662755959E-3 0
8.004734657523901E-3 0
-2.9219701501058168E-2 0
1.2359470352873285E-2 0
1.4483532048170655E-2 0
1.1042978591031613E-2 0
3.8766413320741274E-3 0
-1.347099758843743E-2 0
1.6372628550973996E-2 0
-1.3580770517794214E-2 0
1.0752603585655081E-2 0
-1.3461828543602094E-2 0
-1.0246376135892712E-2 0
5.781683214104939E-1 0
-1.1242211608419253E-2 0
-1.2719366626632325E-2 0
1.0396043215081776E-2 0
-1.4854604128818807E-2 0
1.7525169527469957E-2 0
-1.577709578706155E-2 0
1.5901642563732456E-3 0
4.319679089976132E-3 0
-8.179753146406201E-3 0
7.593329556963939E-3 0
6.094346829880226E-3 0
-7.392214940585894E-3 0
-4.779378121078832E-3 0
-4.8106467287321875E-3 0
-7.455585208515469E-3 0
6.38763861632689E-3 0
7.468542444929638E-3 0
-7.786938062170421E-3 0
5.218971492593628E-3 0
1.9769314997468614E-3 0
5.31310673159595E-3 0
3.8171818326244917E-3 0
6.323994574300415E-4 0
5.602491017384924E-3 0
-1.0312337673359922E-3 0
6.157862952197108E-3 0
-1.4803211679331053E-3 0
5.897804011412462E-3 0
-5.37091932587637E-4 0
3.874877093421036E-3 0
4.068752514656741E-3 0
-1.9774389553008424E-2 0
4.1844595060090105E-3 0
9.246865314953131E-3 0
1.4525115395831609E-2 0
1.233784390137195E-2 0
-2.989577202643653E-2 0
8.71558367580779E-3 0
7.941510429427555E-3 0
-2.9136683340421465E-2 0
1.3121982480723902E-2 0
1.508215211268744E-2 0
1.1719455726709046E-2 0
4.560354501355443E-3 0
-1.3472609933583214E-2 0
1.5456953129256667E-2 0
-1.4359785776805247E-2 0
1.0639829880360097E-2 0
-1.334131712278837E-2 0
-1.1242211608419197E-2 0
5.790914806291398E-1 0
-1.2567533188327498E-2 0
-1.1738938844551546E-2 0
9.848689327315164E-3 0
-1.4895434705221254E-2 0
1.7006086242161537E-2 0
5.523620929214155E-3 0
9.963366188985993E-4 0
4.4469891024891016E-3 0
-8.320512855975558E-3 0
7.765699217611922E-3 0
6.063063576119363E-3 0
-7.431287065528178E-3 0
-4.712340904528975E-3 0
-5.0151189328097034E-3 0
-7.574550175344131E-3 0
6.591503174181204E-3 0
7.82532905030912E-3 0
-8.064417911009555E-3 0
5.626395773515085E-3 0
1.4193076634113316E-3 0
4.866479115537628E-3 0
3.8295338077979804E-3 0
4.082357555446449E-4 0
5.751238894745501E-3 0
-1.4795761688414213E-3 0
6.358354306017396E-3 0
-2.0295832303944355E-3 0
6.118343010908489E-3 0
-9.131892779936815E-4 0
3.754474107071333E-3 0
2.1849985459818647E-2 0
-1.4951820553084126E-2 0
4.29999628323582E-3 0
9.330990307949013E-3 0
1.4296612037996908E-2 0
1.2691694837438715E-2 0
-3.020183049974235E-2 0
8.93100639952096E-3 0
7.892376492218694E-3 0
-2.9429381135216134E-2 0
1.4048902951231136E-2 0
1.488380957644743E-2 0
1.2376247150727033E-2 0
5.494490854046136E-3 0
-1.3485196362207985E-2 0
1.5910350811074808E-2 0
-1.3954305698976729E-2 0
1.0719140854762213E-2 0
-1.2719366626632322E-2 0
-1.2567533188327483E-2 0
5.808372030870169E-1 0
-1.4803704300737243E-2 0
-1.028520960927619E-2 0
9.062653161833493E-3 0
-1.544472730267973E-2 0
4.264214896900808E-3 0
4.1019438236234865E-3 0
7.84731331239545E-4 0
4.660262984804798E-3 0
-8.51913387519525E-3 0
7.92570567032117E-3 0
6.046316624835192E-3 0
-7.765718344509008E-3 0
-4.712933562874449E-3 0
-5.2795419984218E-3 0
-8.0034434587564E-3 0
6.467096079564525E-3 0
8.49246508640776E-3 0
-8.196422015489483E-3 0
5.834823250861133E-3 0
1.7961685513745071E-3 0
5.057622332920377E-3 0
4.01781411378586E-3 0
3.8059575736262163E-6 0
5.894549363129871E-3 0
-2.033604487699543E-3 0
6.624515855118683E-3 0
-2.5587663872388166E-3 0
6.182039059398942E-3 0
-6.690856670519335E-4 0
-2.2037530200826494E-2 0
1.6550348859274207E-2 0
-1.5300615318346485E-2 0
4.30914404480493E-3 0
9.62723862199676E-3 0
1.3849541876529306E-2 0
1.3107677894275794E-2 0
-3.0696208736322395E-2 0
9.186068563048868E-3 0
7.942326942834914E-3 0
-3.0637821620823208E-2 0
1.462952800262313E-2 0
1.591370342834126E-2 0
1.2275145257099145E-2 0
6.235726795857048E-3 0
-1.3352686721954438E-2 0
1.6836695926785637E-2 0
-1.4294232880860224E-2 0
1.0396043215081778E-2 0
-1.1738938844551539E-2 0
-1.4803704300737285E-2 0
5.839638144250141E-1 0
-1.818857830421681E-2 0
-8.947693839001987E-3 0
1.0179805764729091E-2 0
-4.3907049005082263E-4 0
2.9692171677833477E-3 0
4.269536678408126E-3 0
5.396994536962111E-4 0
4.9221817506635976E-3 0
-8.783607655494113E-3 0
8.007953262899086E-3 0
6.206664925724168E-3 0
-8.363740459423256E-3 0
-4.944145764556054E-3 0
-5.384862256607987E-3 0
-7.95698997636017E-3 0
7.263768997427228E-3 0
8.784548275832008E-3 0
-7.971129595111199E-3 0
6.465289442601917E-3 0
1.8531559068783777E-3 0
4.574861978262133E-3 0
3.910024242533856E-3 0
-5.460668677589001E-4 0
6.108368646079234E-3 0
-2.5636428362015404E-3 0
6.955680863329482E-3 0
-2.80034607216347E-3 0
5.989766481528041E-3 0
1.714770281691721E-2 0
-1.6911234071012776E-2 0
1.7020995542443768E-2 0
-1.5545283163312289E-2 0
4.117481554692813E-3 0
1.014193949078068E-2 0
1.3301870706133057E-2 0
1.3498352161279668E-2 0
-3.162923044326677E-2 0
9.26012838812467E-3 0
8.511927968161028E-3 0
-3.211040809560193E-2 0
1.6327183625715096E-2 0
1.6371530822573883E-2 0
1.0830774016583519E-2 0
6.579919212918765E-3 0
-1.4503138723894336E-2 0
1.750351455866507E-2 0
-1.4854604128818815E-2 0
9.848689327315164E-3 0
-1.028520960927616E-2 0
-1.818857830421683E-2 0
5.886998507546596E-1 0
-2.1845333373528075E-2 0
-1.1220301557706615E-2 0
6.992814866413045E-3 0
-1.4787105806621334E-4 0
2.7788632220850287E-3 0
4.4507430796646595E-3 0
4.4058362892832666E-4 0
5.0691636472091715E-3 0
-8.88010822455159E-3 0
7.5739740741009145E-3 0
6.70946850165866E-3 0
-8.543404447719512E-3 0
-5.488985623240599E-3 0
-4.849815221008461E-3 0
-8.18367212036132E-3 0
6.763883936844792E-3 0
9.162497936555209E-3 0
-8.074053889261593E-3 0
5.52716990351026E-3 0
1.6973712763387566E-3 0
4.0597183978287E-3 0
3.8630049315930177E-3 0
-9.254515967855284E-4 0
6.174725123042898E-3 0
-2.803403100557431E-3 0
6.810452026597115E-3 0
-2.303787752786772E-3 0
-2.2567115671469618E-2 0
1.2997709567251466E-2 0
-1.67813248119132E-2 0
1.6774528343486847E-2 0
-1.4947981202846988E-2 0
3.2663006193049265E-3 0
1.0665636605447308E-2 0
1.319481688115967E-2 0
1.4093284880752097E-2 0
-3.238552585741631E-2 0
7.470166284353986E-3 0
1.046560323589335E-2 0
-3.401416750301045E-2 0
1.4832186887112608E-2 0
1.6475566604630267E-2 0
1.0056575239007316E-2 0
6.253839735557935E-3 0
-1.570673180455695E-2 0
1.7525169527469953E-2 0
-1.4895434705221236E-2 0
9.062653161833495E-3 0
-8.947693839001965E-3 0
-2.1845333373528147E-2 0
5.910362405053626E-1 0
-1.7423840081218903E-2 0
-1.92134645872936E-3 0
5.014138835294657E-3 0
4.411028716106256E-5 0
2.9422577698140573E-3 0
4.474043086640787E-3 0
8.272577611414493E-4 0
4.88635057971878E-3 0
-8.529196679187114E-3 0
7.4112817411391965E-3 0
6.839845977701859E-3 0
-8.437325879751543E-3 0
-5.493896814915352E-3 0
-5.213073683859798E-3 0
-8.84056546128938E-3 0
6.349172881680363E-3 0
9.044768660772825E-3 0
-8.198612937879903E-3 0
4.781049362587761E-3 0
1.5108859603674043E-3 0
4.0599337568903255E-3 0
3.745973785195254E-3 0
-6.74630105247561E-4 0
5.987238839776534E-3 0
-2.304495315805767E-3 0
6.317731963201409E-3 0
-1.4048487962133312E-2 0
-1.6235096319788072E-2 0
1.1712574782299914E-2 0
-1.5738799724089494E-2 0
1.5827395922217734E-2 0
-1.4255985838282642E-2 0
3.0920983999405093E-3 0
1.0785571133773797E-2 0
1.3968262497994063E-2 0
1.3652321575987862E-2 0
-3.2679707457250885E-2 0
6.126065059911192E-3 0
1.0441357846529043E-2 0
-3.3328754296515106E-2 0
1.3827292445780811E-2 0
1.750591557234886E-2 0
1.0451840569665376E-2 0
5.756095764039014E-3 0
-1.5777095787061542E-2 0
1.700608624216152E-2 0
-1.5444727302679722E-2 0
1.0179805764729077E-2 0
-1.1220301557706598E-2 0
-1.7423840081218934E-2 0
5.884504289500427E-1 0
