%%MatrixMarket matrix array complex general
%
50 50
4.773817194394613E-1 0
6.789302954704227E-4 0
3.5733054512974783E-3 0
1.4064073351880285E-3 0
1.7945660987223322E-3 0
3.907621415593594E-3 0
-1.6043423950562765E-3 0
2.989653073826542E-3 0
-1.9932046927741954E-3 0
-5.99050126132287E-3 0
7.142211695896693E-4 0
2.8966759510320366E-3 0
-2.671621526062855E-4 0
-2.67162152606294E-4 0
2.898752540587181E-3 0
7.047920547684554E-4 0
-5.967267558918889E-3 0
-2.036117253767961E-3 0
3.0558419977865193E-3 0
-1.692152654180364E-3 0
4.002738065445963E-3 0
1.7245683157229603E-3 0
1.3874797590912693E-3 0
3.6866461401871007E-3 0
6.409420679103649E-4 0
-1.1224624764293966E-2 0
4.1687239664887615E-3 0
-8.654388727904234E-3 0
7.216828087499207E-3 0
-7.858112377099572E-3 0
8.583374264965343E-3 0
1.8106110255881021E-3 0
7.88779807863646E-4 0
1.4031275468433042E-2 0
-3.835666584988188E-3 0
-1.1477465079115814E-2 0
-1.6270542300066785E-4 0
4.811666902622719E-3 0
4.811666902622678E-3 0
-1.575381934800317E-4 0
-1.1500927780416762E-2 0
-3.7745010893494497E-3 0
1.3901910439263138E-2 0
1.0397529498946604E-3 0
1.350633931008846E-3 0
9.384399903616194E-3 0
-9.126207874391125E-3 0
9.030915232506065E-3 0
-1.0536333785277166E-2 0
5.269567521245712E-3 0
6.789302954704207E-4 0
4.879865106339247E-1 0
5.003605756747726E-4 0
2.6107696888209866E-3 0
1.0079608051657282E-3 0
1.282826981772703E-3 0
2.842932155426556E-3 0
-1.1802845831634053E-3 0
2.129093956398363E-3 0
-1.5793470152783695E-3 0
-4.660287687920556E-3 0
3.2281731881369326E-4 0
2.2201393699760566E-3 0
-2.9542719975861017E-4 0
-9.347863204932348E-5 0
2.3965739350879623E-3 0
6.418537770560501E-4 0
-4.271333670558498E-3 0
-1.4792553062460167E-3 0
2.280582335236768E-3 0
-1.2847059280166092E-3 0
3.002108938194269E-3 0
1.1572492745350826E-3 0
1.0745205329677735E-3 0
2.74236210674517E-3 0
4.168723966488117E-3 0
-5.916539154325609E-3 0
3.0460631405892025E-3 0
-6.338290109948631E-3 0
5.22168478608029E-3 0
-5.68774298847239E-3 0
6.332240577303971E-3 0
1.416068518339861E-3 0
7.648238792599719E-4 0
1.0457824219177559E-2 0
-2.773048439147268E-3 0
-8.488778837349697E-3 0
-2.2603962311569734E-4 0
3.345872959279791E-3 0
3.2858712039477793E-3 0
-2.0572418471472652E-4 0
-8.617363011084667E-3 0
-2.915914638816049E-3 0
1.0064850186520041E-2 0
7.537926990819176E-4 0
9.38173994670709E-4 0
6.987084300776645E-3 0
-6.820420943018762E-3 0
6.49073283816498E-3 0
-7.292143493292985E-3 0
3.5733054512974783E-3 0
5.003605756747849E-4 0
4.8798495525814056E-1 0
4.974661138323305E-4 0
2.6069480304157875E-3 0
1.004632510536719E-3 0
1.280637637913661E-3 0
2.8395090683982784E-3 0
-1.2019760672484464E-3 0
2.085462627239241E-3 0
-1.6948625729888075E-3 0
-4.609138726169009E-3 0
4.43471159465762E-4 0
2.1842601763423486E-3 0
-1.4797450948675738E-4 0
-1.1979710053480457E-4 0
2.1718714131506527E-3 0
5.214547805269429E-4 0
-4.301808133861544E-3 0
-1.5183506965487628E-3 0
2.3379879945653777E-3 0
-1.3742887786912209E-3 0
3.116754985041639E-3 0
1.0628208429158301E-3 0
1.1581597623434466E-3 0
-8.654388727903238E-3 0
3.045930471478559E-3 0
-5.918679042576085E-3 0
3.0450494050765983E-3 0
-6.3336038230957185E-3 0
5.24106817740592E-3 0
-5.639031291721969E-3 0
6.425600500029175E-3 0
1.5648352994576762E-3 0
9.352028288029424E-4 0
1.0562777111235211E-2 0
-2.6917635791235254E-3 0
-8.965874781317594E-3 0
-3.822427316334064E-4 0
2.9155800032704326E-3 0
2.8483915937349605E-3 0
-4.927779612415797E-4 0
-8.57088362219302E-3 0
-2.9156735091587205E-3 0
1.01514319937828E-2 0
7.206488091153195E-4 0
9.825651630037558E-4 0
7.0328243759055905E-3 0
-6.661507679294883E-3 0
6.003717267918195E-3 0
1.4064073351880285E-3 0
2.610769688820955E-3 0
4.974661138323431E-4 0
4.879809684959519E-1 0
4.940441584919636E-4 0
2.6073500991342195E-3 0
1.0133701990068884E-3 0
1.302902713950283E-3 0
2.8839076291131004E-3 0
-1.1210750652155734E-3 0
2.212569497062024E-3 0
-1.5296088054390343E-3 0
-4.792317068519606E-3 0
4.0794080057376936E-4 0
1.965902586243052E-3 0
-4.493955093113289E-4 0
-4.1647909814424033E-4 0
2.046018891400471E-3 0
4.704233543282164E-4 0
-4.300487592102392E-3 0
-1.5503329730640059E-3 0
2.403796526468329E-3 0
-1.4815088399621707E-3 0
3.1975590430876437E-3 0
1.1967147323989524E-3 0
7.216828087498378E-3 0
-6.338939993620026E-3 0
3.0442823151676135E-3 0
-5.917232069454908E-3 0
3.054122133099705E-3 0
-6.310245507528642E-3 0
5.286510359568853E-3 0
-5.568364077532606E-3 0
6.518892031858494E-3 0
1.6475269549024961E-3 0
1.0547078188073212E-3 0
1.0532899448504126E-2 0
-2.9748038406989617E-3 0
-8.990419784274978E-3 0
-5.1489418271231E-4 0
2.809981957368804E-3 0
2.9894751574371056E-3 0
-3.798892400226496E-4 0
-8.404684961443783E-3 0
-2.9305547846005327E-3 0
1.0311012512117251E-2 0
5.639909488712694E-4 0
1.1317445869585305E-3 0
6.759116730765502E-3 0
-6.283170076436923E-3 0
1.7945660987223305E-3 0
1.0079608051657416E-3 0
2.606948030415757E-3 0
4.94044158491949E-4 0
4.8798089621273283E-1 0
5.017127913272709E-4 0
2.6292682176597766E-3 0
1.057547385428523E-3 0
1.3820825034458987E-3 0
2.9894111103408905E-3 0
-1.0309990729761792E-3 0
2.1468139923516236E-3 0
-1.7241198548470671E-3 0
-4.770586803801968E-3 0
3.2929502132938824E-4 0
1.8503681717842405E-3 0
-5.037518068202758E-4 0
-4.3690842769394044E-4 0
2.0348548293890527E-3 0
4.8612194744156325E-4 0
-4.306267110330601E-3 0
-1.5527488151972975E-3 0
2.446269005168812E-3 0
-1.4874865571599038E-3 0
3.1754761015179425E-3 0
-7.858112377099052E-3 0
5.21984256095955E-3 0
-6.336117506134711E-3 0
3.052465716983832E-3 0
-5.901490205276822E-3 0
3.079118217225289E-3 0
-6.275351127716782E-3 0
5.329673788620851E-3 0
-5.504508354944255E-3 0
6.6124464699132334E-3 0
1.87306440581439E-3 0
1.140126303636405E-3 0
1.115781855748149E-2 0
-2.7058621376205103E-3 0
-8.506456684750849E-3 0
-4.6315307964827235E-4 0
3.0248150768162636E-3 0
3.1495688386051052E-3 0
-2.980448812783418E-4 0
-8.263869013211573E-3 0
-3.0351379760049026E-3 0
1.0561747844300784E-2 0
2.504348354718852E-4 0
1.5447517089591562E-3 0
6.580968390447384E-3 0
3.907621415593591E-3 0
1.2828269817726922E-3 0
1.0046325105367204E-3 0
2.6073500991342247E-3 0
5.017127913272855E-4 0
4.8799873841869396E-1 0
5.332383956327038E-4 0
2.6788783573343453E-3 0
1.1358596977832835E-3 0
1.473367464325258E-3 0
3.082405665048148E-3 0
-1.0998086749264306E-3 0
2.18890018559397E-3 0
-1.568596794880153E-3 0
-4.510287604342773E-3 0
2.5304059295516614E-4 0
1.891838821518388E-3 0
-4.639388939080688E-4 0
-3.8146765551906196E-4 0
2.0284889138136543E-3 0
5.319467748369695E-4 0
-4.365243357506345E-3 0
-1.50297595436634E-3 0
2.3555078799468256E-3 0
-1.322924219376553E-3 0
8.583374264965093E-3 0
-5.691568157708995E-3 0
5.235773232750607E-3 0
-6.31404204871137E-3 0
3.078111079641335E-3 0
-5.876720442920646E-3 0
3.0972819200683417E-3 0
-6.267029230183499E-3 0
5.356542597529548E-3 0
-5.424519942593733E-3 0
6.960417409629284E-3 0
2.1169796289483393E-3 0
1.2691791104149904E-3 0
1.1294267446459755E-2 0
-2.7985170157683336E-3 0
-8.631129569876933E-3 0
-2.2700999050348164E-4 0
3.178946291703463E-3 0
3.2693595661736643E-3 0
-2.709903231086741E-4 0
-8.172213497623886E-3 0
-3.192677963324322E-3 0
1.0833037767356123E-2 0
-6.281349415200227E-5 0
1.700227685732449E-3 0
-1.6043423950562795E-3 0
2.8429321554265512E-3 0
1.2806376379136527E-3 0
1.0133701990068826E-3 0
2.6292682176597706E-3 0
5.332383956327307E-4 0
4.880336450187328E-1 0
5.66336268052759E-4 0
2.7210111974428123E-3 0
1.189800505307319E-3 0
1.6234495090252786E-3 0
3.1513533941355445E-3 0
-1.0926119306564927E-3 0
2.3563825684829467E-3 0
-1.6190234676239758E-3 0
-4.628741235643394E-3 0
3.7033874812172007E-4 0
1.9972907228669587E-3 0
-4.0221438331557874E-4 0
-3.434303869460126E-4 0
1.9930005538305565E-3 0
5.984315605966689E-4 0
-4.473307277448909E-3 0
-1.3589565007695093E-3 0
2.2915558413882453E-3 0
1.8106110255882446E-3 0
6.327287104805215E-3 0
-5.645615032387086E-3 0
5.282166703444435E-3 0
-6.275921114992482E-3 0
3.098367354433788E-3 0
-5.888912396360278E-3 0
3.0400216720929047E-3 0
-6.3625002989675175E-3 0
5.234709659736073E-3 0
-5.640125786006917E-3 0
6.6171757394600066E-3 0
2.060788266683496E-3 0
1.2762417345306082E-3 0
1.0774193653712794E-2 0
-2.388697297929827E-3 0
-8.152877501905164E-3 0
-4.286354893652721E-6 0
3.3064040319487516E-3 0
3.2793932319633667E-3 0
-2.4310852579222393E-4 0
-8.211858613387996E-3 0
-3.3143658907795457E-3 0
1.0905266793307571E-2 0
2.11259904455309E-4 0
2.989653073826538E-3 0
-1.1802845831634006E-3 0
2.839509068398283E-3 0
1.3029027139502907E-3 0
1.0575473854285223E-3 0
2.6788783573343288E-3 0
5.663362680527622E-4 0
4.880271721570636E-1 0
5.195720756899274E-4 0
2.655596216381685E-3 0
1.1424492062343731E-3 0
1.5197314233949787E-3 0
3.2614300130502107E-3 0
-1.065504127038759E-3 0
2.2372574525121986E-3 0
-1.4218414555305582E-3 0
-4.330947873147947E-3 0
5.378166348182456E-4 0
2.0639969285995404E-3 0
-3.989783653787404E-4 0
-3.614543896556346E-4 0
1.9497033447280383E-3 0
6.847032385762946E-4 0
-4.613489963191737E-3 0
-1.3590082579996456E-3 0
7.887798078635022E-4 0
1.4143320489153708E-3 0
6.424779673891611E-3 0
-5.567543378783391E-3 0
5.330468546570998E-3 0
-6.267117634152782E-3 0
3.0396456840807496E-3 0
-6.045906255507476E-3 0
2.765861572149004E-3 0
-6.7293515335244015E-3 0
4.748249771863845E-3 0
-5.813128335794756E-3 0
7.069971199928193E-3 0
2.013264451220498E-3 0
1.4306279446734183E-3 0
1.1102216074434786E-2 0
-2.1852640811894602E-3 0
-7.942819193947352E-3 0
4.894825242290569E-5 0
3.3531110299387314E-3 0
3.1528847541804914E-3 0
-1.216106030908083E-4 0
-8.506473205399361E-3 0
-3.0252451685874406E-3 0
1.079961378792361E-2 0
-1.9932046927741984E-3 0
2.1290939563983627E-3 0
-1.201976067248453E-3 0
2.883907629113097E-3 0
1.3820825034459084E-3 0
1.1358596977833E-3 0
2.721011197442831E-3 0
5.195720756899475E-4 0
4.8785389907268245E-1 0
2.471173952982618E-4 0
2.408229781028543E-3 0
1.044210094384824E-3 0
1.6061639731910062E-3 0
3.294963760568996E-3 0
-8.526164252255455E-4 0
2.5679097066760607E-3 0
-1.085275157930951E-3 0
-4.172248649698962E-3 0
5.482058693208693E-4 0
1.976234460148278E-3 0
-4.382605990461839E-4 0
-4.549443188888374E-4 0
2.0131069743959127E-3 0
6.265662703223389E-4 0
-4.591098626731573E-3 0
1.4031275468433248E-2 0
7.725180969735168E-4 0
1.5898564911481577E-3 0
6.543940243794107E-3 0
-5.505305358016894E-3 0
5.33791700653612E-3 0
-6.3754773352578415E-3 0
2.7607863103518574E-3 0
-6.488329309210011E-3 0
2.2684589336386942E-3 0
-7.099957984811258E-3 0
4.8822464310459114E-3 0
-5.878218375165091E-3 0
7.029416561577862E-3 0
2.0831489767019736E-3 0
1.62105202348622E-3 0
1.118380922829588E-2 0
-2.08566054510255E-3 0
-7.926312338319657E-3 0
-3.5070480780119744E-5 0
3.308140933894814E-3 0
2.9305807583928744E-3 0
4.774152546667147E-6 0
-9.111009220019013E-3 0
-2.8540692099937193E-3 0
-5.990501261322878E-3 0
-1.57934701527837E-3 0
2.085462627239243E-3 0
-1.1210750652155734E-3 0
2.989411110340882E-3 0
1.4733674643252483E-3 0
1.1898005053073122E-3 0
2.655596216381696E-3 0
2.4711739529828655E-4 0
4.8739214258462193E-1 0
-1.6662958852886793E-4 0
2.330820627819848E-3 0
1.2038826529551531E-3 0
1.6462226954684067E-3 0
3.3861218392319523E-3 0
-3.5200469293862136E-4 0
2.883016397817987E-3 0
-1.0825549323511996E-3 0
-4.3411468697388935E-3 0
3.9000955473385485E-4 0
1.8593342344410838E-3 0
-4.5059081162044485E-4 0
-5.168749577680042E-4 0
2.3036991625436654E-3 0
6.18173447983044E-4 0
-3.8356665849884194E-3 0
1.0462677029747906E-2 0
9.972172981568123E-4 0
1.717634963183624E-3 0
6.606715899652134E-3 0
-5.472383951849353E-3 0
5.215188619650612E-3 0
-6.7323602634225335E-3 0
2.240406599605358E-3 0
-7.000577426160387E-3 0
1.8982147830323992E-3 0
-7.0036285646294235E-3 0
5.4093646983288815E-3 0
-5.858044539862317E-3 0
7.00566074388313E-3 0
2.5521429332716564E-3 0
1.797317851472186E-3 0
1.1217874294164156E-2 0
-2.1913463128372347E-3 0
-8.12074461083368E-3 0
-2.0010979420321176E-4 0
3.0713446953174062E-3 0
2.806108395184594E-3 0
-3.692496883800139E-4 0
-9.178633890700939E-3 0
7.142211695896621E-4 0
-4.6602876879205555E-3 0
-1.69486257298881E-3 0
2.2125694970620254E-3 0
-1.0309990729761756E-3 0
3.0824056650481553E-3 0
1.6234495090252713E-3 0
1.1424492062343551E-3 0
2.4082297810285305E-3 0
-1.6662958852885557E-4 0
4.866464750076644E-1 0
-4.943923680210534E-4 0
2.552315623712478E-3 0
1.1422052098837784E-3 0
2.2304616716335136E-3 0
4.240807152329484E-3 0
-3.5385059147264084E-4 0
2.5700135499595305E-3 0
-1.4224882845444956E-3 0
-4.6292357792590815E-3 0
2.518861091346849E-4 0
1.8569822893637483E-3 0
-4.4268656884659686E-4 0
-1.558336519995145E-4 0
2.547913469571075E-3 0
-1.1477465079115727E-2 0
-2.8638175577046718E-3 0
1.0666641875956432E-2 0
1.2378110614694577E-3 0
1.8170133118257763E-3 0
6.868744630281116E-3 0
-5.5878543657855865E-3 0
4.762565215698453E-3 0
-7.18496735516338E-3 0
1.7051330961689632E-3 0
-7.286123910472562E-3 0
2.353756765546558E-3 0
-6.892320788725734E-3 0
5.233785890570851E-3 0
-5.357490704652049E-3 0
7.523566609074745E-3 0
2.754476543316995E-3 0
1.6884087704756169E-3 0
1.1108674121261375E-2 0
-2.4547056578075495E-3 0
-8.54765532462517E-3 0
-3.6490387813051543E-4 0
2.531896908202898E-3 0
2.8748369352439448E-3 0
-1.9611152012409964E-4 0
2.8966759510320383E-3 0
3.228173188136973E-4 0
-4.609138726169006E-3 0
-1.5296088054390362E-3 0
2.1468139923516163E-3 0
-1.099808674926443E-3 0
3.1513533941355436E-3 0
1.5197314233949906E-3 0
1.0442100943848342E-3 0
2.3308206278198525E-3 0
-4.943923680210738E-4 0
4.869572861079596E-1 0
-1.3423622459298766E-4 0
2.290479898856886E-3 0
1.4597942327976958E-3 0
2.2282699957527174E-3 0
3.391708963429515E-3 0
-8.615736782712373E-4 0
2.2478895396620194E-3 0
-1.6288756315520408E-3 0
-4.500199292906853E-3 0
3.094867733427969E-4 0
2.0151785339620884E-3 0
-2.192080664132814E-4 0
-5.9646029381757794E-5 0
-1.6270542300061692E-4 0
-8.682407535159135E-3 0
-2.6935071668991325E-3 0
1.068275161277829E-2 0
1.072416652997966E-3 0
2.139377094128392E-3 0
6.850355524086764E-3 0
-5.751994652827041E-3 0
4.786077847791921E-3 0
-7.366327133551283E-3 0
1.6025510225727302E-3 0
-6.858371356481949E-3 0
2.714931915011472E-3 0
-7.284593357316797E-3 0
5.404181768129874E-3 0
-4.600623926068945E-3 0
7.352430586953491E-3 0
2.2085792762072585E-3 0
1.3270149616637292E-3 0
1.0590148519453314E-2 0
-2.8601479801738943E-3 0
-8.431365030692754E-3 0
-6.473609828193628E-4 0
2.9100934204911444E-3 0
3.6655885733548996E-3 0
-2.6716215260629006E-4 0
2.220139369976058E-3 0
4.434711594657662E-4 0
-4.792317068519606E-3 0
-1.724119854847071E-3 0
2.188900185593966E-3 0
-1.0926119306564907E-3 0
3.261430013050213E-3 0
1.6061639731910072E-3 0
1.2038826529551592E-3 0
2.552315623712474E-3 0
-1.3423622459299352E-4 0
4.8556253339617866E-1 0
-4.933279887930968E-4 0
2.2894560524848433E-3 0
1.1468541618046473E-3 0
1.6351352859993898E-3 0
3.313643806457838E-3 0
-1.0893475936775451E-3 0
2.3779552318363077E-3 0
-1.5771773766418379E-3 0
-4.781384190546297E-3 0
4.0219617299198105E-4 0
2.240285194072625E-3 0
-3.534125253108868E-4 0
4.811666902622679E-3 0
-3.3745796053097186E-4 0
-9.033259206709082E-3 0
-2.9564200604361443E-3 0
1.113976986532819E-2 0
1.3545900871375104E-3 0
2.2424616347562105E-3 0
7.120549063008113E-3 0
-5.91768833305718E-3 0
5.205528885362645E-3 0
-7.540322435090398E-3 0
2.2586073372594675E-3 0
-7.417345871957914E-3 0
2.5995734546595236E-3 0
-6.827533143433494E-3 0
5.878447253569648E-3 0
-5.64545041138608E-3 0
7.050129526283016E-3 0
1.997742931900519E-3 0
1.039399720482437E-3 0
1.1270612111561894E-2 0
-2.7118021160602835E-3 0
-9.074917099352845E-3 0
-1.8949740009739093E-4 0
3.576528213612912E-3 0
-2.6716215260629857E-4 0
-2.954271997586112E-4 0
2.184260176342346E-3 0
4.079408005737676E-4 0
-4.7705868038019645E-3 0
-1.5685967948801498E-3 0
2.356382568482952E-3 0
-1.0655041270387561E-3 0
3.2949637605689973E-3 0
1.6462226954684093E-3 0
1.142205209883781E-3 0
2.2904798988568837E-3 0
-4.933279887930985E-4 0
4.8556253339617866E-1 0
-1.327911890016127E-4 0
2.5457541891342893E-3 0
1.219852502584699E-3 0
1.577634790273814E-3 0
3.302389864613533E-3 0
-1.1394044616006597E-3 0
2.22200730981819E-3 0
-1.7102333377425857E-3 0
-4.881648722851236E-3 0
5.697035468578685E-4 0
2.2765799837315003E-3 0
4.8116669026226815E-3 0
3.457291296695088E-3 0
-3.148583062419578E-4 0
-9.008803564537765E-3 0
-2.6878134454672246E-3 0
1.1208856469737245E-2 0
1.094568366457892E-3 0
1.9626865881405904E-3 0
7.068886519469947E-3 0
-5.654208726896082E-3 0
5.881787536935512E-3 0
-6.828268779564798E-3 0
2.5995734546595123E-3 0
-7.417345871957887E-3 0
2.2597554494658014E-3 0
-7.545535637571499E-3 0
5.2169636443644305E-3 0
-5.931910078812657E-3 0
7.1234879946227465E-3 0
2.2767873575812348E-3 0
1.258154527823784E-3 0
1.129138107226881E-2 0
-3.008583346756514E-3 0
-9.200602667876059E-3 0
-2.1454940600300657E-4 0
2.8987525405871828E-3 0
-9.347863204932243E-5 0
-1.4797450948675925E-4 0
1.96590258624305E-3 0
3.2929502132938445E-4 0
-4.5102876043427755E-3 0
-1.61902346762397E-3 0
2.237257452512203E-3 0
-8.526164252255414E-4 0
3.3861218392319554E-3 0
2.230461671633514E-3 0
1.4597942327977034E-3 0
2.2894560524848472E-3 0
-1.3279118900160375E-4 0
4.8695388524049504E-1 0
-4.846809442802736E-4 0
2.3093165485587094E-3 0
1.0834687487221105E-3 0
1.4571242635597877E-3 0
3.2402802892388762E-3 0
-1.207277329929226E-3 0
2.24384673344209E-3 0
-1.5247562452784876E-3 0
-4.749445263656238E-3 0
4.3937988678130707E-4 0
-1.5753819348001118E-4 0
3.4794980942302214E-3 0
2.917325985122456E-3 0
-6.647425953688883E-4 0
-8.438748920576562E-3 0
-2.820917305315426E-3 0
1.0541013851326698E-2 0
1.3694936177388597E-3 0
2.1793172141980136E-3 0
7.3683584435185944E-3 0
-4.606287187639794E-3 0
5.404187006735635E-3 0
-7.283851286947736E-3 0
2.7160735929800486E-3 0
-6.865859105537276E-3 0
1.6265169321826377E-3 0
-7.416098671739451E-3 0
4.863290736967764E-3 0
-5.842211240558711E-3 0
6.914585650406886E-3 0
2.1740072812513785E-3 0
8.502100052349633E-4 0
1.1114563229595316E-2 0
-3.1496611808663317E-3 0
-8.951427754092516E-3 0
7.047920547684492E-4 0
2.396573935087965E-3 0
-1.1979710053480351E-4 0
-4.493955093113289E-4 0
1.8503681717842405E-3 0
2.5304059295516837E-4 0
-4.628741235643394E-3 0
-1.4218414555305602E-3 0
2.5679097066760525E-3 0
-3.520046929386201E-4 0
4.2408071523294885E-3 0
2.228269995752714E-3 0
1.1468541618046464E-3 0
2.545754189134286E-3 0
-4.846809442802716E-4 0
4.8662840031589266E-1 0
-1.3355059406245677E-4 0
2.3513969052093354E-3 0
1.2340151755125808E-3 0
1.4840729055942926E-3 0
3.2845101847385075E-3 0
-1.3013928306410778E-3 0
2.513500571016932E-3 0
-1.9271485577833471E-3 0
-4.8213668748374894E-3 0
-1.150092778041674E-2 0
-1.1494685876818183E-4 0
2.744515958295441E-3 0
2.6268616798362327E-3 0
-4.0709341984186074E-4 0
-8.539443966000836E-3 0
-2.4409686375116927E-3 0
1.1087903554643327E-2 0
1.7060629638122713E-3 0
2.745228567280513E-3 0
7.523576716439088E-3 0
-5.3518534558402815E-3 0
5.230416391433197E-3 0
-6.897504775435041E-3 0
2.3777442359924055E-3 0
-7.349484273575707E-3 0
1.8257221811826309E-3 0
-7.373202065779036E-3 0
5.016375309050119E-3 0
-5.883972255428042E-3 0
7.138436533626552E-3 0
1.6982496289342144E-3 0
9.656577317865655E-4 0
1.129774958363499E-2 0
-3.381326746566258E-3 0
-5.967267558918894E-3 0
6.41853777056049E-4 0
2.1718714131506497E-3 0
-4.1647909814423794E-4 0
-5.037518068202777E-4 0
1.891838821518391E-3 0
3.7033874812172E-4 0
-4.330947873147945E-3 0
-1.085275157930945E-3 0
2.883016397817982E-3 0
-3.5385059147263715E-4 0
3.3917089634295256E-3 0
1.635135285999387E-3 0
1.219852502584697E-3 0
2.3093165485587024E-3 0
-1.335505940624526E-4 0
4.873405774839625E-1 0
3.270395375809609E-4 0
2.5357519243021896E-3 0
1.361976465339387E-3 0
1.2295207108062565E-3 0
3.3253716932537445E-3 0
-1.571633597318301E-3 0
2.5491119079242104E-3 0
-1.8903755782297149E-3 0
-3.7745010893495043E-3 0
-8.622235652743414E-3 0
-5.547660509629249E-4 0
2.9194084372532606E-3 0
3.030524910728597E-3 0
-1.7917707261118435E-4 0
-8.133356697686674E-3 0
-2.1822624420161714E-3 0
1.1211857973633712E-2 0
1.797309549570897E-3 0
2.561379714389243E-3 0
6.989804908088795E-3 0
-5.8492079783106785E-3 0
5.420721211289032E-3 0
-7.053473861953505E-3 0
2.0188229563131324E-3 0
-7.2151852693787275E-3 0
2.564515926566693E-3 0
-7.17852525697821E-3 0
5.791849561301282E-3 0
-6.164428647173717E-3 0
7.344785311569877E-3 0
1.1388033710994765E-3 0
1.238041872067195E-3 0
1.0965413881135682E-2 0
-2.0361172537679603E-3 0
-4.271333670558495E-3 0
5.214547805269458E-4 0
2.046018891400467E-3 0
-4.369084276939424E-4 0
-4.639388939080711E-4 0
1.9972907228669548E-3 0
5.378166348182517E-4 0
-4.172248649698948E-3 0
-1.082554932351207E-3 0
2.5700135499595288E-3 0
-8.615736782712257E-4 0
3.3136438064578374E-3 0
1.5776347902738109E-3 0
1.083468748722099E-3 0
2.3513969052093523E-3 0
3.270395375809458E-4 0
4.8774073820542485E-1 0
6.76934458157023E-4 0
2.513225550585252E-3 0
1.4017597951343963E-3 0
1.0499465349639598E-3 0
3.3082990853326878E-3 0
-1.6417471171738765E-3 0
2.468622662949179E-3 0
1.3901910439263082E-2 0
-2.923574146481021E-3 0
-8.595951550605122E-3 0
-4.050103542573931E-4 0
3.150402331693181E-3 0
3.197626820622425E-3 0
8.691298782385477E-6 0
-7.937731394155571E-3 0
-2.085655284830612E-3 0
1.118983033073987E-2 0
1.6033796302600443E-3 0
2.112206248306964E-3 0
7.010484452352416E-3 0
-5.892265004882055E-3 0
4.9596634177115325E-3 0
-7.288171349239027E-3 0
2.5925562899377715E-3 0
-6.9594135739892956E-3 0
3.3951855381555798E-3 0
-7.203795244972764E-3 0
6.3941106660196576E-3 0
-6.7837292314684985E-3 0
7.921388807741452E-3 0
4.588715498954306E-4 0
1.3470340650232277E-3 0
3.0558419977865176E-3 0
-1.4792553062460158E-3 0
-4.301808133861546E-3 0
4.704233543282207E-4 0
2.034854829389058E-3 0
-3.814676555190629E-4 0
-4.0221438331557516E-4 0
2.0639969285995443E-3 0
5.482058693208822E-4 0
-4.341146869738894E-3 0
-1.4224882845444936E-3 0
2.2478895396620254E-3 0
-1.0893475936775477E-3 0
3.302389864613533E-3 0
1.4571242635597855E-3 0
1.2340151755125919E-3 0
2.5357519243021805E-3 0
6.769344581570367E-4 0
4.8781742643982545E-1 0
8.346853439593851E-4 0
2.3556660248413427E-3 0
1.4173599252617695E-3 0
9.041138688833519E-4 0
3.2221049294232974E-3 0
-1.4442336693942358E-3 0
1.0397529498947628E-3 0
1.0066537733672033E-2 0
-2.9147852539308195E-3 0
-8.405401144318746E-3 0
-2.988915676410515E-4 0
3.269369202222694E-3 0
3.3067787208668846E-3 0
4.893037759186889E-5 0
-7.931391358597618E-3 0
-2.1943461660160605E-3 0
1.1123171027452692E-2 0
1.3886924862384679E-3 0
2.0486949370397646E-3 0
7.0725359894834895E-3 0
-5.903889403700303E-3 0
5.001881302382271E-3 0
-7.1755324408868575E-3 0
3.400277030512173E-3 0
-6.872199819908095E-3 0
4.091372388940323E-3 0
-7.605373953624161E-3 0
6.997321083023345E-3 0
-7.526928627680344E-3 0
8.244200325289828E-3 0
5.50238892176092E-4 0
-1.6921526541803695E-3 0
2.280582335236771E-3 0
-1.518350696548758E-3 0
-4.300487592102395E-3 0
4.861219474415602E-4 0
2.0284889138136577E-3 0
-3.434303869460115E-4 0
-3.989783653787387E-4 0
1.9762344601482818E-3 0
3.9000955473385713E-4 0
-4.629235779259079E-3 0
-1.6288756315520425E-3 0
2.3779552318363055E-3 0
-1.1394044616006586E-3 0
3.2402802892388728E-3 0
1.4840729055942946E-3 0
1.3619764653393848E-3 0
2.51322555058526E-3 0
8.346853439593821E-4 0
4.876827094524163E-1 0
9.692252366733708E-4 0
2.153754534910623E-3 0
1.4568387237098256E-3 0
9.526988134459363E-4 0
3.151027214414992E-3 0
1.3506339310088212E-3 0
7.588042793503868E-4 0
1.0157932618881897E-2 0
-2.926338739551001E-3 0
-8.263236542210992E-3 0
-2.71979975845727E-4 0
3.27939507925369E-3 0
3.3527560873928956E-3 0
-4.805348905359446E-5 0
-8.140331026857019E-3 0
-2.4030516201227563E-3 0
1.0822011660383673E-2 0
1.2202934784435687E-3 0
2.095893599620099E-3 0
6.682722476357309E-3 0
-5.935626142729354E-3 0
5.8114355795359845E-3 0
-7.190811368800762E-3 0
4.091725789066556E-3 0
-7.177751907792148E-3 0
4.685679325642582E-3 0
-8.226033797369655E-3 0
7.6235736689860755E-3 0
-7.929920440842272E-3 0
7.949474910402606E-3 0
4.00273806544596E-3 0
-1.2847059280166099E-3 0
2.3379879945653807E-3 0
-1.5503329730640137E-3 0
-4.3062671103306005E-3 0
5.319467748369655E-4 0
1.993000553830552E-3 0
-3.6145438965563397E-4 0
-4.382605990461824E-4 0
1.8593342344410799E-3 0
2.518861091346889E-4 0
-4.5001992929068575E-3 0
-1.577177376641839E-3 0
2.222007309818188E-3 0
-1.2072773299292255E-3 0
3.284510184738505E-3 0
1.2295207108062563E-3 0
1.4017597951344045E-3 0
2.3556660248413314E-3 0
9.692252366734027E-4 0
4.874006901103527E-1 0
1.2296158232865974E-3 0
1.898374840814631E-3 0
1.4870437915714945E-3 0
1.1654163648034787E-3 0
9.384399903616109E-3 0
9.419398506250314E-4 0
7.26033085261614E-4 0
1.0314944693854739E-2 0
-3.034194939550033E-3 0
-8.172312677595672E-3 0
-2.420228611739701E-4 0
3.1527772052356885E-3 0
3.289543411147394E-3 0
-2.4779241413693627E-4 0
-8.637829639683948E-3 0
-2.8349236719098494E-3 0
1.1357575702921036E-2 0
1.1711909364646453E-3 0
2.1487801834313112E-3 0
7.228623515147995E-3 0
-6.11677674321324E-3 0
6.412762502237893E-3 0
-7.6053444021859816E-3 0
4.684688819783569E-3 0
-7.746777747066269E-3 0
5.294821814477478E-3 0
-8.913529984857577E-3 0
7.783428800496772E-3 0
-7.559007967047101E-3 0
1.72456831572296E-3 0
3.002108938194266E-3 0
-1.3742887786912235E-3 0
2.403796526468333E-3 0
-1.5527488151972973E-3 0
-4.3652433575063505E-3 0
5.984315605966664E-4 0
1.9497033447280396E-3 0
-4.549443188888335E-4 0
-4.505908116204497E-4 0
1.856982289363747E-3 0
3.094867733427988E-4 0
-4.7813841905463E-3 0
-1.7102333377425837E-3 0
2.2438467334420895E-3 0
-1.3013928306410732E-3 0
3.3253716932537414E-3 0
1.0499465349639732E-3 0
1.4173599252617576E-3 0
2.1537545349106313E-3 0
1.2296158232865918E-3 0
4.8693596794660005E-1 0
1.6850007448110929E-3 0
1.7125415004601737E-3 0
1.3835209547332272E-3 0
-9.126207874390923E-3 0
6.9889787107354235E-3 0
9.849951846492041E-4 0
5.65521342617624E-4 0
1.056180228080561E-2 0
-3.1936011671910057E-3 0
-8.212437761096253E-3 0
-1.2080619815496086E-4 0
2.9297268713327856E-3 0
3.0652758721027226E-3 0
-4.2373132923441723E-4 0
-8.504145683009506E-3 0
-2.732576769854995E-3 0
1.131215572606351E-2 0
9.2298870883261E-4 0
1.7570859285349573E-3 0
7.350832720768997E-3 0
-6.782837694989485E-3 0
6.996463207149892E-3 0
-8.225390583105147E-3 0
5.295679854033711E-3 0
-8.443165087695458E-3 0
5.960585357323967E-3 0
-9.200519973302797E-3 0
7.411978297659807E-3 0
1.3874797590912682E-3 0
1.1572492745350797E-3 0
3.116754985041644E-3 0
-1.481508839962173E-3 0
2.4462690051688107E-3 0
-1.5029759543663376E-3 0
-4.473307277448911E-3 0
6.847032385762973E-4 0
2.0131069743959075E-3 0
-5.168749577680066E-4 0
-4.4268656884659783E-4 0
2.01517853396209E-3 0
4.021961729919805E-4 0
-4.881648722851237E-3 0
-1.5247562452784873E-3 0
2.5135005710169387E-3 0
-1.5716335973182918E-3 0
3.3082990853326825E-3 0
9.041138688833627E-4 0
1.4568387237098015E-3 0
1.8983748408146729E-3 0
1.6850007448110575E-3 0
4.8624637516274233E-1 0
2.2089393636919802E-3 0
2.0406861438743863E-3 0
9.030915232505852E-3 0
-6.819808503234483E-3 0
7.033661084731225E-3 0
1.131850092917098E-3 0
2.487523748905168E-4 0
1.0829207547699421E-2 0
-3.318661719526586E-3 0
-8.5056475433494E-3 0
2.9750857552771945E-5 0
2.876222734502049E-3 0
2.717544155745483E-3 0
-4.914430052567752E-4 0
-9.052746238362625E-3 0
-3.0307542077467496E-3 0
1.0958649058102246E-2 0
7.79993202125581E-4 0
1.068730912894532E-3 0
7.896338184415654E-3 0
-7.527648416012925E-3 0
7.627740472603048E-3 0
-8.909563115154524E-3 0
5.962141633395364E-3 0
-9.144168451107266E-3 0
6.206759122410506E-3 0
-8.939639936303583E-3 0
3.686646140187095E-3 0
1.0745205329677732E-3 0
1.062820842915824E-3 0
3.1975590430876402E-3 0
-1.4874865571599058E-3 0
2.3555078799468243E-3 0
-1.3589565007695054E-3 0
-4.613489963191741E-3 0
6.265662703223406E-4 0
2.3036991625436597E-3 0
-1.5583365199951796E-4 0
-2.1920806641328192E-4 0
2.2402851940726276E-3 0
5.697035468578603E-4 0
-4.7494452636562354E-3 0
-1.9271485577833445E-3 0
2.5491119079242056E-3 0
-1.641747117173873E-3 0
3.222104929423289E-3 0
9.526988134459382E-4 0
1.4870437915715064E-3 0
1.7125415004601674E-3 0
2.208939363691985E-3 0
4.858044407133337E-1 0
1.5604483386826003E-3 0
-1.0536333785277009E-2 0
6.490884157673915E-3 0
-6.6615561843278576E-3 0
6.758274511785168E-3 0
1.5422290196360027E-3 0
-6.813713808711862E-5 0
1.089859190256792E-2 0
-3.026079073975379E-3 0
-9.085670650355222E-3 0
-3.064714627234402E-4 0
2.978606001564605E-3 0
2.9044577512227056E-3 0
-2.60348724598097E-4 0
-9.12975134337534E-3 0
-3.144023115127285E-3 0
1.11939696357241E-2 0
1.1752900563293076E-3 0
4.334861704718046E-4 0
8.245101825991577E-3 0
-7.923329018171476E-3 0
7.788842446300451E-3 0
-9.198082020136503E-3 0
6.207671870440553E-3 0
-9.02038806500446E-3 0
5.439891076757651E-3 0
6.409420679103616E-4 0
2.7423621067451678E-3 0
1.1581597623434399E-3 0
1.1967147323989527E-3 0
3.1754761015179486E-3 0
-1.3229242193765456E-3 0
2.2915558413882414E-3 0
-1.3590082579996426E-3 0
-4.591098626731572E-3 0
6.181734479830444E-4 0
2.5479134695710784E-3 0
-5.964602938175908E-5 0
-3.534125253108897E-4 0
2.2765799837315E-3 0
4.393798867813146E-4 0
-4.821366874837492E-3 0
-1.8903755782297114E-3 0
2.4686226629491766E-3 0
-1.4442336693942317E-3 0
3.1510272144149917E-3 0
1.1654163648034735E-3 0
1.3835209547332352E-3 0
2.040686143874391E-3 0
1.5604483386825912E-3 0
4.8613604527714793E-1 0
5.269567521245677E-3 0
-7.292148281389013E-3 0
6.003596118020267E-3 0
-6.283825601932332E-3 0
6.57903887605306E-3 0
1.6962238146120282E-3 0
2.0609251906221403E-4 0
1.0797790467675464E-2 0
-2.846180384399232E-3 0
-9.17410873512619E-3 0
-2.925363034999365E-4 0
3.462533068386861E-3 0
3.4605358137554812E-3 0
-9.855700614557606E-5 0
-8.748374173663795E-3 0
-3.2848932244860267E-3 0
1.0960867608707571E-2 0
1.339182209781322E-3 0
5.520100745817029E-4 0
7.954704291211166E-3 0
-7.555067504594829E-3 0
7.413963785452112E-3 0
-8.939024654673463E-3 0
5.440032168649824E-3 0
-7.962507715574909E-3 0
-1.1224624764293964E-2 0
4.168723966488113E-3 0
-8.654388727903244E-3 0
7.216828087498369E-3 0
-7.858112377099049E-3 0
8.583374264965101E-3 0
1.8106110255882337E-3 0
7.887798078635125E-4 0
1.4031275468433245E-2 0
-3.8356665849884264E-3 0
-1.1477465079115727E-2 0
-1.6270542300061963E-4 0
4.811666902622677E-3 0
4.811666902622681E-3 0
-1.575381934800119E-4 0
-1.1500927780416736E-2 0
-3.7745010893495117E-3 0
1.3901910439263079E-2 0
1.0397529498947613E-3 0
1.3506339310088232E-3 0
9.3843999036161E-3 0
-9.12620787439091E-3 0
9.030915232505843E-3 0
-1.0536333785276993E-2 0
5.269567521245677E-3 0
6.375494217833708E-1 0
-1.698402704427208E-2 0
-1.93544572465439E-2 0
-3.0704885187550005E-3 0
-5.453165095314291E-3 0
-2.3255196196677763E-2 0
1.6523441554579712E-2 0
-2.1536990749997643E-2 0
8.95155992886729E-3 0
3.464116818799635E-2 0
-7.424416098438684E-3 0
-1.7018776361058474E-2 0
4.29902256323442E-3 0
4.299022563234449E-3 0
-1.703543579576789E-2 0
-7.348771047474284E-3 0
3.445426303935458E-2 0
9.299280589628084E-3 0
-2.2082026094186743E-2 0
1.7270763860244943E-2 0
-2.413429143296947E-2 0
-4.6293731242609E-3 0
-3.5210840953728588E-3 0
-1.938812486160785E-2 0
-1.7778903362019625E-2 0
4.168723966488765E-3 0
-5.916539154325623E-3 0
3.0459304714785616E-3 0
-6.338939993620026E-3 0
5.219842560959569E-3 0
-5.691568157709006E-3 0
6.327287104805214E-3 0
1.4143320489153801E-3 0
7.725180969735071E-4 0
1.0462677029747907E-2 0
-2.8638175577046904E-3 0
-8.68240753515913E-3 0
-3.3745796053097447E-4 0
3.457291296695092E-3 0
3.4794980942302266E-3 0
-1.1494685876818819E-4 0
-8.6222356527434E-3 0
-2.9235741464810204E-3 0
1.0066537733672033E-2 0
7.588042793503881E-4 0
9.419398506250336E-4 0
6.988978710735423E-3 0
-6.819808503234481E-3 0
6.490884157673914E-3 0
-7.2921482813890085E-3 0
-1.6984027044272102E-2 0
5.730826040974171E-1 0
-1.2405579611095893E-2 0
-1.4160095668074189E-2 0
-2.1621446260409664E-3 0
-3.8554537361627224E-3 0
-1.696009228117087E-2 0
1.2073764642731454E-2 0
-1.5516084930888347E-2 0
6.950269397009691E-3 0
2.628465185235764E-2 0
-4.7153838170863995E-3 0
-1.3071666656569466E-2 0
3.666207588209318E-3 0
2.8192446750577487E-3 0
-1.3459156811273515E-2 0
-5.763325213060058E-3 0
2.478446952735935E-2 0
6.840619990890683E-3 0
-1.6412497168892603E-2 0
1.2977491048261009E-2 0
-1.8142461757163757E-2 0
-2.8264003973515212E-3 0
-2.6880092329795656E-3 0
-1.4823171696026885E-2 0
-8.654388727904234E-3 0
3.046063140589231E-3 0
-5.91867904257612E-3 0
3.0442823151676196E-3 0
-6.336117506134705E-3 0
5.235773232750601E-3 0
-5.6456150323870875E-3 0
6.424779673891618E-3 0
1.5898564911481466E-3 0
9.97217298156826E-4 0
1.066664187595641E-2 0
-2.6935071668991203E-3 0
-9.033259206709082E-3 0
-3.14858306241958E-4 0
2.9173259851224586E-3 0
2.744515958295438E-3 0
-5.547660509629206E-4 0
-8.595951550605127E-3 0
-2.9147852539308156E-3 0
1.0157932618881886E-2 0
7.260330852616179E-4 0
9.849951846492085E-4 0
7.033661084731221E-3 0
-6.661556184327851E-3 0
6.003596118020267E-3 0
-1.9354457246543902E-2 0
-1.2405579611095908E-2 0
5.730844496745346E-1 0
-1.2402680760058354E-2 0
-1.415694749792928E-2 0
-2.161270179796858E-3 0
-3.8544693424270087E-3 0
-1.6945325658956633E-2 0
1.2160618374734694E-2 0
-1.5368449150329014E-2 0
7.308997598639985E-3 0
2.6023474095537392E-2 0
-5.3646470986894864E-3 0
-1.2861265755473646E-2 0
3.1849536514775493E-3 0
3.0785616158415102E-3 0
-1.2650576789420958E-2 0
-5.289581068506792E-3 0
2.483280341495704E-2 0
7.1174499637805715E-3 0
-1.6839481281513774E-2 0
1.3669184316122443E-2 0
-1.9015261731919253E-2 0
-2.101063168354825E-3 0
-3.0091075991234323E-3 0
7.216828087499208E-3 0
-6.338290109948638E-3 0
3.045049405076628E-3 0
-5.917232069454828E-3 0
3.052465716983805E-3 0
-6.314042048711352E-3 0
5.282166703444424E-3 0
-5.567543378783385E-3 0
6.543940243794104E-3 0
1.717634963183633E-3 0
1.2378110614694442E-3 0
1.0682751612778301E-2 0
-2.956420060436147E-3 0
-9.008803564537772E-3 0
-6.64742595368884E-4 0
2.626861679836227E-3 0
2.9194084372532627E-3 0
-4.050103542573887E-4 0
-8.40540114431875E-3 0
-2.926338739551003E-3 0
1.031494469385474E-2 0
5.655213426176274E-4 0
1.1318500929170983E-3 0
6.758274511785176E-3 0
-6.283825601932335E-3 0
-3.070488518755004E-3 0
-1.416009566807417E-2 0
-1.2402680760058349E-2 0
5.730873223408225E-1 0
-1.2403800085190153E-2 0
-1.4170401410754036E-2 0
-2.1969869513222347E-3 0
-3.921089889948227E-3 0
-1.7054576102548825E-2 0
1.1969942221271656E-2 0
-1.5653991801877428E-2 0
6.879956607857299E-3 0
2.740242638492658E-2 0
-4.962683435363521E-3 0
-1.1778392302273616E-2 0
4.079776935501785E-3 0
3.998450098927167E-3 0
-1.226057806700478E-2 0
-5.088682486934139E-3 0
2.4797046724907026E-2 0
7.366641170516072E-3 0
-1.732259092265038E-2 0
1.4470768802192616E-2 0
-1.960019048095466E-2 0
-2.842481263505052E-3 0
-7.858112377099569E-3 0
5.221684786080286E-3 0
-6.333603823095724E-3 0
3.0541221330996856E-3 0
-5.90149020527679E-3 0
3.0781110796413297E-3 0
-6.275921114992468E-3 0
5.330468546570982E-3 0
-5.505305358016888E-3 0
6.606715899652133E-3 0
1.8170133118257628E-3 0
1.072416652997978E-3 0
1.1139769865328183E-2 0
-2.6878134454672176E-3 0
-8.438748920576562E-3 0
-4.070934198418661E-4 0
3.0305249107285934E-3 0
3.1504023316931817E-3 0
-2.9889156764105614E-4 0
-8.263236542210993E-3 0
-3.0341949395500285E-3 0
1.0561802280805617E-2 0
2.487523748905249E-4 0
1.5422290196360048E-3 0
6.5790388760530605E-3 0
-5.4531650953142784E-3 0
-2.162144626040955E-3 0
-1.4156947497929305E-2 0
-1.2403800085190165E-2 0
5.730736928372318E-1 0
-1.244309808936707E-2 0
-1.4253117433115284E-2 0
-2.341798332892045E-3 0
-4.1380167324144125E-3 0
-1.7297129660728973E-2 0
1.199856167473762E-2 0
-1.525675200221558E-2 0
7.6612898941461754E-3 0
2.7544280648465636E-2 0
-4.772780473918784E-3 0
-1.1815918999608323E-2 0
4.2106216444723395E-3 0
4.067970070571688E-3 0
-1.2142308581047593E-2 0
-5.165407235842794E-3 0
2.4858356867227243E-2 0
7.391615986110961E-3 0
-1.763367564848396E-2 0
1.449565535452121E-2 0
-1.917030475861973E-2 0
8.583374264965344E-3 0
-5.68774298847238E-3 0
5.241068177405926E-3 0
-6.310245507528648E-3 0
3.079118217225255E-3 0
-5.876720442920662E-3 0
3.0983673544337886E-3 0
-6.26711763415279E-3 0
5.33791700653612E-3 0
-5.472383951849346E-3 0
6.868744630281108E-3 0
2.1393770941283974E-3 0
1.3545900871375085E-3 0
1.1208856469737245E-2 0
-2.8209173053154305E-3 0
-8.539443966000832E-3 0
-1.7917707261118403E-4 0
3.1976268206224197E-3 0
3.2693692022226937E-3 0
-2.719799758457315E-4 0
-8.172312677595661E-3 0
-3.1936011671910014E-3 0
1.0829207547699423E-2 0
-6.81371380871201E-5 0
1.6962238146120303E-3 0
-2.3255196196677756E-2 0
-3.8554537361627323E-3 0
-2.161270179796836E-3 0
-1.4170401410754032E-2 0
-1.2443098089367057E-2 0
5.729991384516826E-1 0
-1.2563023569258761E-2 0
-1.4433283291102848E-2 0
-2.625046021392451E-3 0
-4.527488235176766E-3 0
-1.7949312474315214E-2 0
1.1498448978316598E-2 0
-1.6246629795704067E-2 0
7.297842218555562E-3 0
2.617301190961373E-2 0
-4.248802439405856E-3 0
-1.1619274280287811E-2 0
4.254801221764293E-3 0
3.90310205652452E-3 0
-1.2002967424309662E-2 0
-5.46182776301801E-3 0
2.52809159745692E-2 0
7.025491694025205E-3 0
-1.6957361805027445E-2 0
1.3415055473548624E-2 0
1.810611025588101E-3 0
6.33224057730396E-3 0
-5.63903129172197E-3 0
5.286510359568859E-3 0
-6.275351127716764E-3 0
3.0972819200683504E-3 0
-5.888912396360304E-3 0
3.039645684080729E-3 0
-6.375477335257825E-3 0
5.215188619650605E-3 0
-5.587854365785581E-3 0
6.850355524086773E-3 0
2.2424616347562105E-3 0
1.0945683664578894E-3 0
1.0541013851326698E-2 0
-2.4409686375116927E-3 0
-8.133356697686665E-3 0
8.691298782377966E-6 0
3.306778720866877E-3 0
3.2793950792536935E-3 0
-2.4202286117397308E-4 0
-8.212437761096255E-3 0
-3.3186617195265864E-3 0
1.0898591902567924E-2 0
2.0609251906221528E-4 0
1.6523441554579715E-2 0
-1.6960092281170853E-2 0
-3.854469342427017E-3 0
-2.1969869513222234E-3 0
-1.4253117433115279E-2 0
-1.2563023569258761E-2 0
5.728623947632211E-1 0
-1.270456728552795E-2 0
-1.4661093889110154E-2 0
-3.014561667634555E-3 0
-5.5848050469130125E-3 0
-1.847452947464009E-2 0
1.2080385587674769E-2 0
-1.6836600664115405E-2 0
7.433422962895271E-3 0
2.6673204396493816E-2 0
-4.660489687677645E-3 0
-1.1925592764511345E-2 0
4.102792510923613E-3 0
3.7225653073497894E-3 0
-1.1746160100015756E-2 0
-5.966918832509579E-3 0
2.6051417157341487E-2 0
5.912661103848485E-3 0
-1.6425162320374196E-2 0
7.88779807863646E-4 0
1.4160685183398644E-3 0
6.425600500029177E-3 0
-5.56836407753261E-3 0
5.329673788620842E-3 0
-6.267029230183511E-3 0
3.0400216720928895E-3 0
-6.045906255507485E-3 0
2.7607863103518617E-3 0
-6.732360263422527E-3 0
4.762565215698454E-3 0
-5.751994652827048E-3 0
7.120549063008108E-3 0
1.962686588140593E-3 0
1.3694936177388614E-3 0
1.1087903554643314E-2 0
-2.1822624420161744E-3 0
-7.937731394155566E-3 0
4.893037759187171E-5 0
3.3527560873928934E-3 0
3.1527772052356903E-3 0
-1.208061981549611E-4 0
-8.505647543349398E-3 0
-3.0260790739753784E-3 0
1.0797790467675462E-2 0
-2.1536990749997657E-2 0
1.2073764642731442E-2 0
-1.6945325658956633E-2 0
-3.921089889948241E-3 0
-2.3417983328920537E-3 0
-1.443328329110285E-2 0
-1.2704567285527917E-2 0
5.728542231610552E-1 0
-1.2591342469489019E-2 0
-1.4506273009998768E-2 0
-2.73666841437451E-3 0
-4.639756547382873E-3 0
-1.8832943789605466E-2 0
1.1849073526828744E-2 0
-1.6163615576677833E-2 0
6.383429535674456E-3 0
2.5268082478440586E-2 0
-5.369785616759412E-3 0
-1.2183054149340794E-2 0
4.081932813385738E-3 0
3.7552150658607423E-3 0
-1.1539222804510323E-2 0
-6.559209742598795E-3 0
2.693951908479546E-2 0
5.833330012614981E-3 0
1.403127546843305E-2 0
7.648238792599762E-4 0
1.5648352994576866E-3 0
6.518892031858498E-3 0
-5.504508354944254E-3 0
5.3565425975295525E-3 0
-6.36250029896752E-3 0
2.765861572148998E-3 0
-6.4883293092100345E-3 0
2.2404065996053683E-3 0
-7.184967355163384E-3 0
4.786077847791927E-3 0
-5.917688333057184E-3 0
7.068886519469953E-3 0
2.1793172141980127E-3 0
1.7060629638122652E-3 0
1.1211857973633712E-2 0
-2.0856552848306127E-3 0
-7.93139135859762E-3 0
-4.8053489053590365E-5 0
3.289543411147397E-3 0
2.92972687133279E-3 0
2.9750857552775286E-5 0
-9.085670650355218E-3 0
-2.8461803843992397E-3 0
8.951559928867306E-3 0
-1.5516084930888338E-2 0
1.2160618374734694E-2 0
-1.7054576102548822E-2 0
-4.138016732414397E-3 0
-2.625046021392461E-3 0
-1.4661093889110174E-2 0
-1.2591342469489045E-2 0
5.73507881251087E-1 0
-1.1460121441094121E-2 0
-1.3403045268320172E-2 0
-2.2440742354521955E-3 0
-5.020699760883188E-3 0
-1.9275913130732673E-2 0
1.0600779219105853E-2 0
-1.7257164040449118E-2 0
5.05687695048615E-3 0
2.4584767842584017E-2 0
-5.439879139852993E-3 0
-1.1785988582697802E-2 0
4.099226977393398E-3 0
4.142487233989517E-3 0
-1.1958274179213985E-2 0
-6.084463366117118E-3 0
2.678168448552087E-2 0
-3.8356665849881948E-3 0
1.045782421917757E-2 0
9.35202828802936E-4 0
1.6475269549025007E-3 0
6.612446469913241E-3 0
-5.424519942593732E-3 0
5.23470965973607E-3 0
-6.7293515335244E-3 0
2.2684589336386895E-3 0
-7.000577426160399E-3 0
1.7051330961689681E-3 0
-7.366327133551282E-3 0
5.205528885362654E-3 0
-5.654208726896089E-3 0
7.368358443518588E-3 0
2.7452285672805166E-3 0
1.7973095495709033E-3 0
1.1189830330739869E-2 0
-2.194346166016059E-3 0
-8.14033102685702E-3 0
-2.4779241413693497E-4 0
3.0652758721027113E-3 0
2.8762227345020385E-3 0
-3.064714627234437E-4 0
-9.174108735126184E-3 0
3.4641168187996334E-2 0
6.950269397009689E-3 0
-1.5368449150329016E-2 0
1.1969942221271651E-2 0
-1.7297129660728983E-2 0
-4.527488235176759E-3 0
-3.014561667634552E-3 0
-1.4506273009998768E-2 0
-1.1460121441094137E-2 0
5.756176065845743E-1 0
-9.598701579639301E-3 0
-1.2904111693244081E-2 0
-2.7733132633451494E-3 0
-5.55604817609827E-3 0
-1.939788401315267E-2 0
8.541462834385647E-3 0
-1.871499935583063E-2 0
5.038387110353473E-3 0
2.5338294754063132E-2 0
-4.795619496143582E-3 0
-1.1405096924501052E-2 0
3.880689671114855E-3 0
4.5799440906139945E-3 0
-1.3381338216414011E-2 0
-5.780564842274085E-3 0
-1.1477465079115809E-2 0
-2.7730484391472574E-3 0
1.0562777111235239E-2 0
1.0547078188073342E-3 0
1.8730644058143901E-3 0
6.96041740962928E-3 0
-5.640125786006926E-3 0
4.748249771863849E-3 0
-7.099957984811255E-3 0
1.8982147830324027E-3 0
-7.286123910472572E-3 0
1.6025510225727419E-3 0
-7.540322435090402E-3 0
5.881787536935519E-3 0
-4.606287187639795E-3 0
7.523576716439089E-3 0
2.5613797143892443E-3 0
1.6033796302600413E-3 0
1.1123171027452684E-2 0
-2.403051620122751E-3 0
-8.637829639683946E-3 0
-4.237313292344098E-4 0
2.717544155745486E-3 0
2.9786060015646017E-3 0
-2.925363034999353E-4 0
-7.424416098438675E-3 0
2.628465185235763E-2 0
7.308997598639987E-3 0
-1.5653991801877435E-2 0
1.1998561674737625E-2 0
-1.794931247431521E-2 0
-5.584805046913015E-3 0
-2.736668414374516E-3 0
-1.3403045268320177E-2 0
-9.5987015796393E-3 0
5.795596686788566E-1 0
-7.57438394702081E-3 0
-1.4157706657633587E-2 0
-2.658635163040865E-3 0
-8.602080699725996E-3 0
-2.3763161815772364E-2 0
8.555772789599098E-3 0
-1.72738538537097E-2 0
6.388280213138811E-3 0
2.668289044638733E-2 0
-4.2599101595333895E-3 0
-1.1824198611300142E-2 0
3.983291713406003E-3 0
3.3682322437590044E-3 0
-1.4349094209808615E-2 0
-1.6270542300066956E-4 0
-8.488778837349721E-3 0
-2.691763579123554E-3 0
1.0532899448504109E-2 0
1.1401263036364044E-3 0
2.1169796289483424E-3 0
6.617175739460016E-3 0
-5.8131283357947625E-3 0
4.882246431045916E-3 0
-7.003628564629419E-3 0
2.3537567655465643E-3 0
-6.858371356481966E-3 0
2.258607337259465E-3 0
-6.828268779564799E-3 0
5.40418700673564E-3 0
-5.351853455840283E-3 0
6.989804908088784E-3 0
2.1122062483069685E-3 0
1.3886924862384735E-3 0
1.0822011660383667E-2 0
-2.834923671909861E-3 0
-8.504145683009503E-3 0
-4.914430052567638E-4 0
2.9044577512227013E-3 0
3.4625330683868685E-3 0
-1.7018776361058488E-2 0
-4.715383817086392E-3 0
2.602347409553737E-2 0
6.879956607857297E-3 0
-1.5256752002215579E-2 0
1.1498448978316603E-2 0
-1.8474529474640095E-2 0
-4.639756547382851E-3 0
-2.2440742354522016E-3 0
-1.2904111693244086E-2 0
-7.5743839470207765E-3 0
5.779949529098907E-1 0
-1.0142525119799982E-2 0
-1.289904374056347E-2 0
-4.653674168990937E-3 0
-8.584712270316276E-3 0
-1.9442136895482427E-2 0
1.0672080445444758E-2 0
-1.6248494088937908E-2 0
7.5099366012000455E-3 0
2.6106770553312158E-2 0
-4.662170256294378E-3 0
-1.2071425861253687E-2 0
3.633513472633929E-3 0
2.719553275416422E-3 0
4.811666902622719E-3 0
-2.2603962311568972E-4 0
-8.965874781317594E-3 0
-2.97480384069896E-3 0
1.1157818557481484E-2 0
1.2691791104149908E-3 0
2.0607882666834987E-3 0
7.069971199928189E-3 0
-5.878218375165092E-3 0
5.409364698328889E-3 0
-6.892320788725739E-3 0
2.7149319150114666E-3 0
-7.417345871957919E-3 0
2.5995734546595257E-3 0
-7.28385128694773E-3 0
5.230416391433198E-3 0
-5.84920797831068E-3 0
7.010484452352422E-3 0
2.048694937039766E-3 0
1.220293478443568E-3 0
1.1357575702921034E-2 0
-2.732576769854997E-3 0
-9.052746238362627E-3 0
-2.603487245980979E-4 0
3.4605358137554734E-3 0
4.299022563234404E-3 0
-1.3071666656569473E-2 0
-5.364647098689473E-3 0
2.7402426384926588E-2 0
7.661289894146172E-3 0
-1.6246629795704067E-2 0
1.2080385587674774E-2 0
-1.8832943789605466E-2 0
-5.020699760883188E-3 0
-2.7733132633451472E-3 0
-1.4157706657633586E-2 0
-1.0142525119799977E-2 0
5.862898333296473E-1 0
-9.11799678307863E-3 0
-1.2890883752730993E-2 0
-2.695687002207377E-3 0
-5.467382074575319E-3 0
-1.9426814084082453E-2 0
1.2046376199524238E-2 0
-1.702694965858807E-2 0
7.398649463353475E-3 0
2.7595029504004106E-2 0
-4.9587065184177204E-3 0
-1.3150364704790099E-2 0
4.094039131038663E-3 0
4.811666902622679E-3 0
3.3458729592797855E-3 0
-3.822427316334083E-4 0
-8.990419784274985E-3 0
-2.7058621376205025E-3 0
1.1294267446459755E-2 0
1.2762417345306037E-3 0
2.013264451220503E-3 0
7.029416561577866E-3 0
-5.8580445398623135E-3 0
5.233785890570852E-3 0
-7.284593357316789E-3 0
2.599573454659532E-3 0
-7.417345871957891E-3 0
2.7160735929800447E-3 0
-6.897504775435044E-3 0
5.420721211289049E-3 0
-5.892265004882068E-3 0
7.072535989483493E-3 0
2.095893599620097E-3 0
1.1711909364646484E-3 0
1.1312155726063507E-2 0
-3.0307542077467452E-3 0
-9.129751343375337E-3 0
-9.855700614557168E-5 0
4.299022563234434E-3 0
3.6662075882093223E-3 0
-1.2861265755473647E-2 0
-4.962683435363509E-3 0
2.7544280648465636E-2 0
7.297842218555563E-3 0
-1.6836600664115402E-2 0
1.1849073526828754E-2 0
-1.9275913130732677E-2 0
-5.556048176098266E-3 0
-2.658635163040856E-3 0
-1.2899043740563481E-2 0
-9.117996783078623E-3 0
5.862898333296476E-1 0
-1.015402726852786E-2 0
-1.4105479157607504E-2 0
-2.9006779592571303E-3 0
-4.791940747171901E-3 0
-1.9165815058911146E-2 0
1.2473905545216709E-2 0
-1.6565320338938382E-2 0
7.668580154252314E-3 0
2.7939616486902276E-2 0
-6.218221542807555E-3 0
-1.3330739999977661E-2 0
-1.575381934800326E-4 0
3.2858712039477824E-3 0
2.9155800032704313E-3 0
-5.148941827123048E-4 0
-8.506456684750856E-3 0
-2.798517015768335E-3 0
1.0774193653712783E-2 0
1.4306279446734196E-3 0
2.0831489767019792E-3 0
7.005660743883112E-3 0
-5.35749070465206E-3 0
5.404181768129875E-3 0
-6.82753314343349E-3 0
2.259755449465797E-3 0
-6.8658591055372606E-3 0
2.3777442359924103E-3 0
-7.053473861953502E-3 0
4.9596634177115255E-3 0
-5.903889403700304E-3 0
6.6827224763573055E-3 0
2.148780183431309E-3 0
9.229887088326102E-4 0
1.0958649058102236E-2 0
-3.1440231151272898E-3 0
-8.7483741736638E-3 0
-1.703543579576789E-2 0
2.8192446750577534E-3 0
3.1849536514775493E-3 0
-1.1778392302273635E-2 0
-4.772780473918782E-3 0
2.617301190961373E-2 0
7.433422962895254E-3 0
-1.6163615576677847E-2 0
1.0600779219105853E-2 0
-1.9397884013152657E-2 0
-8.602080699725968E-3 0
-4.653674168990906E-3 0
-1.2890883752730991E-2 0
-1.0154027268527857E-2 0
5.780219839398825E-1 0
-7.651664547063128E-3 0
-1.2733022114317774E-2 0
-2.5555145809213232E-3 0
-4.144628757414195E-3 0
-1.9177961116894186E-2 0
1.2360888933303626E-2 0
-1.6081218670782504E-2 0
7.059051703978041E-3 0
2.6751293938657137E-2 0
-5.5332169988243085E-3 0
-1.1500927780416762E-2 0
-2.057241847147152E-4 0
2.8483915937349683E-3 0
2.8099819573688084E-3 0
-4.631530796482669E-4 0
-8.631129569876932E-3 0
-2.388697297929824E-3 0
1.1102216074434788E-2 0
1.6210520234862227E-3 0
2.5521429332716534E-3 0
7.5235666090747505E-3 0
-4.6006239260689506E-3 0
5.8784472535696524E-3 0
-7.545535637571502E-3 0
1.6265169321826342E-3 0
-7.349484273575695E-3 0
2.0188229563131346E-3 0
-7.288171349239026E-3 0
5.001881302382269E-3 0
-5.935626142729343E-3 0
7.228623515147996E-3 0
1.7570859285349566E-3 0
7.799932021255824E-4 0
1.1193969635724103E-2 0
-3.28489322448603E-3 0
-7.348771047474288E-3 0
-1.3459156811273505E-2 0
3.0785616158414933E-3 0
4.079776935501786E-3 0
-1.1815918999608325E-2 0
-4.2488024394058506E-3 0
2.6673204396493826E-2 0
6.3834295356744696E-3 0
-1.725716404044911E-2 0
8.541462834385642E-3 0
-2.376316181577237E-2 0
-8.584712270316265E-3 0
-2.695687002207378E-3 0
-1.4105479157607506E-2 0
-7.651664547063114E-3 0
5.797041625441355E-1 0
-9.863620835980389E-3 0
-1.2950760898614844E-2 0
-3.457483574661825E-3 0
-4.50110275463852E-3 0
-1.9497871953578615E-2 0
1.4038749507580198E-2 0
-1.7888528982235002E-2 0
9.008440213358828E-3 0
2.704350620194628E-2 0
-3.7745010893494527E-3 0
-8.617363011084669E-3 0
-4.927779612415784E-4 0
2.9894751574371086E-3 0
3.0248150768162553E-3 0
-2.270099905034852E-4 0
-8.15287750190517E-3 0
-2.185264081189465E-3 0
1.118380922829587E-2 0
1.7973178514721902E-3 0
2.7544765433169943E-3 0
7.352430586953484E-3 0
-5.645450411386083E-3 0
5.2169636443644375E-3 0
-7.416098671739446E-3 0
1.825722181182644E-3 0
-7.215185269378695E-3 0
2.5925562899377797E-3 0
-7.1755324408868575E-3 0
5.811435579535967E-3 0
-6.11677674321324E-3 0
7.350832720769006E-3 0
1.0687309128945288E-3 0
1.1752900563293115E-3 0
1.0960867608707582E-2 0
3.445426303935457E-2 0
-5.763325213060053E-3 0
-1.2650576789420956E-2 0
3.998450098927163E-3 0
4.21062164447233E-3 0
-1.1619274280287816E-2 0
-4.660489687677656E-3 0
2.5268082478440573E-2 0
5.056876950486146E-3 0
-1.871499935583063E-2 0
8.555772789599092E-3 0
-1.944213689548243E-2 0
-5.46738207457533E-3 0
-2.9006779592571294E-3 0
-1.2733022114317764E-2 0
-9.863620835980386E-3 0
5.760338246996569E-1 0
-1.2103794326449334E-2 0
-1.3548632208128665E-2 0
-4.378662621303315E-3 0
-2.6186825308757568E-3 0
-1.9892147966949002E-2 0
1.5379444712591705E-2 0
-1.8812114948753414E-2 0
8.994811880803562E-3 0
1.3901910439263141E-2 0
-2.9159146388160434E-3 0
-8.570883622193012E-3 0
-3.798892400226479E-4 0
3.1495688386051113E-3 0
3.1789462917034615E-3 0
-4.286354893650164E-6 0
-7.942819193947357E-3 0
-2.085660545102552E-3 0
1.1217874294164149E-2 0
1.6884087704756156E-3 0
2.208579276207255E-3 0
7.050129526283022E-3 0
-5.931910078812664E-3 0
4.863290736967772E-3 0
-7.373202065779034E-3 0
2.564515926566695E-3 0
-6.959413573989269E-3 0
3.4002770305121667E-3 0
-7.190811368800763E-3 0
6.412762502237888E-3 0
-6.782837694989498E-3 0
7.896338184415664E-3 0
4.3348617047180965E-4 0
1.3391822097813168E-3 0
9.2992805896281E-3 0
2.4784469527359333E-2 0
-5.289581068506797E-3 0
-1.2260578067004776E-2 0
4.06797007057169E-3 0
4.2548012217643E-3 0
-1.1925592764511342E-2 0
-5.369785616759418E-3 0
2.4584767842583996E-2 0
5.038387110353464E-3 0
-1.7273853853709702E-2 0
1.0672080445444761E-2 0
-1.9426814084082453E-2 0
-4.791940747171905E-3 0
-2.555514580921324E-3 0
-1.2950760898614834E-2 0
-1.2103794326449332E-2 0
5.74422256346398E-1 0
-1.3859387994709173E-2 0
-1.298853583066816E-2 0
-4.758981177748298E-3 0
-1.4841335036546383E-3 0
-2.0420320909414858E-2 0
1.563221955601165E-2 0
-1.813512710409631E-2 0
1.0397529498946613E-3 0
1.0064850186520044E-2 0
-2.9156735091587153E-3 0
-8.404684961443783E-3 0
-2.980448812783424E-4 0
3.269359566173665E-3 0
3.3064040319487546E-3 0
4.8948252422910454E-5 0
-7.926312338319665E-3 0
-2.1913463128372316E-3 0
1.1108674121261377E-2 0
1.3270149616637285E-3 0
1.99774293190052E-3 0
7.123487994622744E-3 0
-5.842211240558714E-3 0
5.016375309050118E-3 0
-7.178525256978208E-3 0
3.395185538155573E-3 0
-6.872199819908083E-3 0
4.091725789066578E-3 0
-7.605344402185974E-3 0
6.996463207149904E-3 0
-7.527648416012937E-3 0
8.245101825991573E-3 0
5.520100745817027E-4 0
-2.2082026094186764E-2 0
6.840619990890683E-3 0
2.4832803414957052E-2 0
-5.088682486934136E-3 0
-1.2142308581047591E-2 0
3.9031020565245323E-3 0
4.1027925109236385E-3 0
-1.2183054149340794E-2 0
-5.439879139852999E-3 0
2.5338294754063115E-2 0
6.38828021313881E-3 0
-1.6248494088937908E-2 0
1.2046376199524228E-2 0
-1.916581505891115E-2 0
-4.14462875741419E-3 0
-3.457483574661816E-3 0
-1.3548632208128674E-2 0
-1.3859387994709147E-2 0
5.745429910094166E-1 0
-1.4867227825798347E-2 0
-1.1826779889142457E-2 0
-5.250799727781364E-3 0
-7.182073819166924E-4 0
-1.9984143288535913E-2 0
1.4330270666538768E-2 0
1.3506339310088433E-3 0
7.537926990819106E-4 0
1.0151431993782798E-2 0
-2.930554784600537E-3 0
-8.263869013211574E-3 0
-2.7099032310867223E-4 0
3.2793932319633706E-3 0
3.3531110299387296E-3 0
-3.50704807801219E-5 0
-8.120744610833681E-3 0
-2.4547056578075517E-3 0
1.059014851945332E-2 0
1.039399720482436E-3 0
2.2767873575812317E-3 0
6.914585650406887E-3 0
-5.88397225542804E-3 0
5.791849561301292E-3 0
-7.203795244972773E-3 0
4.091372388940331E-3 0
-7.177751907792132E-3 0
4.684688819783562E-3 0
-8.225390583105157E-3 0
7.627740472603059E-3 0
-7.923329018171483E-3 0
7.95470429121118E-3 0
1.727076386024495E-2 0
-1.641249716889259E-2 0
7.11744996378058E-3 0
2.479704672490703E-2 0
-5.165407235842799E-3 0
-1.2002967424309648E-2 0
3.7225653073498025E-3 0
4.08193281338575E-3 0
-1.1785988582697807E-2 0
-4.795619496143583E-3 0
2.6682890446387338E-2 0
7.509936601200049E-3 0
-1.7026949658588076E-2 0
1.2473905545216704E-2 0
-1.9177961116894182E-2 0
-4.50110275463852E-3 0
-4.378662621303319E-3 0
-1.2988535830668155E-2 0
-1.4867227825798308E-2 0
5.756905049017715E-1 0
-1.6073196782653988E-2 0
-1.0398714472496864E-2 0
-5.849769011799314E-3 0
-1.084542076669039E-3 0
-1.923964999793291E-2 0
9.384399903616194E-3 0
9.381739946707126E-4 0
7.206488091153231E-4 0
1.0311012512117251E-2 0
-3.0351379760049017E-3 0
-8.172213497623884E-3 0
-2.431085257922241E-4 0
3.152884754180499E-3 0
3.308140933894815E-3 0
-2.0010979420321566E-4 0
-8.547655324625175E-3 0
-2.8601479801738986E-3 0
1.1270612111561891E-2 0
1.2581545278237873E-3 0
2.17400728125138E-3 0
7.138436533626558E-3 0
-6.164428647173726E-3 0
6.394110666019668E-3 0
-7.6053739536241635E-3 0
4.6856793256425805E-3 0
-7.746777747066288E-3 0
5.295679854033717E-3 0
-8.90956311515454E-3 0
7.788842446300455E-3 0
-7.5550675045948255E-3 0
-2.4134291432969468E-2 0
1.2977491048261007E-2 0
-1.6839481281513757E-2 0
7.366641170516074E-3 0
2.4858356867227253E-2 0
-5.461827763018011E-3 0
-1.1746160100015755E-2 0
3.755215065860746E-3 0
4.09922697739339E-3 0
-1.1405096924501047E-2 0
-4.259910159533394E-3 0
2.6106770553312158E-2 0
7.398649463353475E-3 0
-1.6565320338938372E-2 0
1.236088893330362E-2 0
-1.9497871953578626E-2 0
-2.6186825308757624E-3 0
-4.758981177748289E-3 0
-1.1826779889142469E-2 0
-1.607319678265395E-2 0
5.777718560567077E-1 0
-1.8241210285103303E-2 0
-8.4757999347487E-3 0
-6.143359402946091E-3 0
-2.3728874119700164E-3 0
-9.126207874391125E-3 0
6.987084300776651E-3 0
9.825651630037567E-4 0
5.639909488712781E-4 0
1.0561747844300782E-2 0
-3.1926779633243206E-3 0
-8.211858613387992E-3 0
-1.2161060309080933E-4 0
2.93058075839288E-3 0
3.0713446953174093E-3 0
-3.649038781305173E-4 0
-8.43136503069276E-3 0
-2.7118021160602796E-3 0
1.1291381072268805E-2 0
8.50210005234969E-4 0
1.6982496289342155E-3 0
7.344785311569878E-3 0
-6.783729231468503E-3 0
6.997321083023352E-3 0
-8.22603379736965E-3 0
5.294821814477449E-3 0
-8.443165087695473E-3 0
5.962141633395373E-3 0
-9.198082020136509E-3 0
7.413963785452101E-3 0
-4.629373124260889E-3 0
-1.8142461757163747E-2 0
1.3669184316122436E-2 0
-1.732259092265036E-2 0
7.39161598611096E-3 0
2.5280915974569197E-2 0
-5.966918832509569E-3 0
-1.1539222804510325E-2 0
4.142487233989509E-3 0
3.8806896711148513E-3 0
-1.1824198611300131E-2 0
-4.66217025629438E-3 0
2.759502950400412E-2 0
7.668580154252313E-3 0
-1.6081218670782504E-2 0
1.40387495075802E-2 0
-1.9892147966948995E-2 0
-1.484133503654634E-3 0
-5.250799727781363E-3 0
-1.0398714472496884E-2 0
-1.824121028510325E-2 0
5.812689147182718E-1 0
-2.1733383714945837E-2 0
-6.9468420581924204E-3 0
-5.190943318755596E-3 0
9.030915232506072E-3 0
-6.820420943018769E-3 0
7.032824375905593E-3 0
1.131744586958544E-3 0
2.5043483547188043E-4 0
1.0833037767356122E-2 0
-3.31436589077955E-3 0
-8.506473205399361E-3 0
4.7741525466637625E-6 0
2.8061083951845963E-3 0
2.5318969082028984E-3 0
-6.473609828193623E-4 0
-9.074917099352845E-3 0
-3.0085833467565198E-3 0
1.1114563229595312E-2 0
9.656577317865652E-4 0
1.138803371099479E-3 0
7.921388807741448E-3 0
-7.526928627680332E-3 0
7.623573668986075E-3 0
-8.913529984857583E-3 0
5.960585357323948E-3 0
-9.144168451107245E-3 0
6.2076718704405535E-3 0
-8.939024654673474E-3 0
-3.521084095372874E-3 0
-2.826400397351513E-3 0
-1.901526173191924E-2 0
1.44707688021926E-2 0
-1.763367564848396E-2 0
7.025491694025208E-3 0
2.605141715734148E-2 0
-6.559209742598788E-3 0
-1.1958274179213992E-2 0
4.579944090613994E-3 0
3.983291713405999E-3 0
-1.2071425861253678E-2 0
-4.958706518417731E-3 0
2.7939616486902283E-2 0
7.059051703978043E-3 0
-1.7888528982235E-2 0
1.537944471259171E-2 0
-2.0420320909414855E-2 0
-7.182073819166908E-4 0
-5.8497690117993145E-3 0
-8.475799934748689E-3 0
-2.173338371494583E-2 0
5.863584130401858E-1 0
-2.537574186320488E-2 0
-9.084986956048369E-3 0
-1.0536333785277177E-2 0
6.490732838164989E-3 0
-6.661507679294886E-3 0
6.759116730765499E-3 0
1.544751708959156E-3 0
-6.281349415200824E-5 0
1.0905266793307567E-2 0
-3.025245168587439E-3 0
-9.111009220019017E-3 0
-3.692496883800081E-4 0
2.8748369352439352E-3 0
2.910093420491147E-3 0
-1.8949740009738733E-4 0
-9.200602667876057E-3 0
-3.1496611808663356E-3 0
1.1297749583634987E-2 0
1.2380418720671954E-3 0
4.588715498954366E-4 0
8.24420032528983E-3 0
-7.929920440842276E-3 0
7.783428800496774E-3 0
-9.200519973302781E-3 0
6.206759122410472E-3 0
-9.020388065004463E-3 0
5.4400321686498155E-3 0
-1.9388124861607865E-2 0
-2.6880092329795735E-3 0
-2.1010631683548307E-3 0
-1.9600190480954648E-2 0
1.449565535452121E-2 0
-1.6957361805027448E-2 0
5.912661103848481E-3 0
2.6939519084795457E-2 0
-6.084463366117108E-3 0
-1.3381338216414023E-2 0
3.3682322437590074E-3 0
3.633513472633932E-3 0
-1.315036470479009E-2 0
-6.218221542807568E-3 0
2.6751293938657154E-2 0
9.008440213358827E-3 0
-1.8812114948753428E-2 0
1.5632219556011653E-2 0
-1.998414328853592E-2 0
-1.0845420766690227E-3 0
-6.143359402946078E-3 0
-6.946842058192444E-3 0
-2.5375741863204834E-2 0
5.888072696769036E-1 0
-2.0942482543193624E-2 0
5.269567521245721E-3 0
-7.292143493292979E-3 0
6.0037172679182045E-3 0
-6.283170076436917E-3 0
6.580968390447383E-3 0
1.70022768573245E-3 0
2.112599044553079E-4 0
1.0799613787923604E-2 0
-2.8540692099937167E-3 0
-9.17863389070094E-3 0
-1.9611152012410148E-4 0
3.6655885733548974E-3 0
3.576528213612913E-3 0
-2.1454940600300847E-4 0
-8.951427754092512E-3 0
-3.38132674656626E-3 0
1.096541388113568E-2 0
1.3470340650232253E-3 0
5.502388921760848E-4 0
7.949474910402621E-3 0
-7.559007967047102E-3 0
7.411978297659798E-3 0
-8.939639936303577E-3 0
5.439891076757629E-3 0
-7.962507715574937E-3 0
-1.7778903362019635E-2 0
-1.4823171696026878E-2 0
-3.0091075991234206E-3 0
-2.8424812635050568E-3 0
-1.917030475861972E-2 0
1.3415055473548617E-2 0
-1.6425162320374186E-2 0
5.833330012614985E-3 0
2.6781684485520877E-2 0
-5.780564842274076E-3 0
-1.4349094209808615E-2 0
2.7195532754164236E-3 0
4.094039131038652E-3 0
-1.3330739999977649E-2 0
-5.533216998824309E-3 0
2.7043506201946278E-2 0
8.994811880803566E-3 0
-1.8135127104096316E-2 0
1.4330270666538787E-2 0
-1.9239649997932932E-2 0
-2.372887411970014E-3 0
-5.190943318755593E-3 0
-9.084986956048391E-3 0
-2.0942482543193613E-2 0
5.853367514180571E-1 0
