%%MatrixMarket matrix array complex general
%
50 50
4.7152160867648746E-1 0
3.2798476349730735E-3 0
3.448997924793765E-4 0
5.248575513555303E-3 0
-3.875564141756648E-4 0
-5.173652351962331E-4 0
-2.2332793023193114E-3 0
7.232294883533094E-3 0
1.6203643160403569E-3 0
-9.370338489231688E-4 0
2.3749020732702136E-3 0
-5.487708907760608E-3 0
-2.9051872852176855E-3 0
-2.90518728521754E-3 0
-5.484020128858601E-3 0
2.358152533270051E-3 0
-8.951553102588018E-4 0
1.540046654829909E-3 0
7.3666069247983424E-3 0
-2.440874690593443E-3 0
-2.1017656109655034E-4 0
-8.17047759012918E-4 0
5.8099732852251096E-3 0
-2.0757821782867056E-4 0
3.70831212295112E-3 0
-8.421601776784913E-3 0
3.3303829404183302E-3 0
-1.0617176723708766E-3 0
2.266743552150946E-3 0
-8.546631234253583E-3 0
-1.3872190683173866E-3 0
1.4043278581555104E-2 0
3.3226930764625323E-3 0
-2.912255720042486E-5 0
-2.723737684851136E-3 0
6.861056505637719E-3 0
-7.676123785247203E-3 0
5.21178919808532E-3 0
5.211789198084913E-3 0
-7.678188539413119E-3 0
6.870431879823624E-3 0
-2.7456947717411184E-3 0
5.837358526797569E-6 0
3.2858562671448806E-3 0
1.405149846582396E-2 0
-1.3069862827650603E-3 0
-8.790842527967966E-3 0
2.7287569250573256E-3 0
-1.5930881877105002E-3 0
3.7652418615839096E-3 0
3.279847634973073E-3 0
4.848496210520573E-1 0
2.3684461890763815E-3 0
2.4269645079526855E-4 0
3.829795390398104E-3 0
-2.7054442264481856E-4 0
-3.261427248691215E-4 0
-1.5527233743843276E-3 0
5.378606386346107E-3 0
1.3474245107237106E-3 0
-4.4824635999983855E-4 0
1.8325278552976847E-3 0
-4.268113563886792E-3 0
-2.1913923807683265E-3 0
-2.1288589331414955E-3 0
-4.104487129452443E-3 0
1.6153880886085159E-3 0
-7.098075163957221E-4 0
1.0515284274129032E-3 0
5.37297197069533E-3 0
-1.816979408970453E-3 0
-7.13871236488408E-5 0
-6.672527819391052E-4 0
4.243614770438465E-3 0
6.008712411905018E-5 0
3.3303829404172564E-3 0
-4.42526058702523E-3 0
2.417063775967339E-3 0
-7.783655703191211E-4 0
1.6625579460964885E-3 0
-6.224739893182465E-3 0
-9.746476776129223E-4 0
1.0330879775943004E-2 0
2.537291772666922E-3 0
6.565239416817824E-5 0
-1.8042120974961944E-3 0
5.20527792101249E-3 0
-5.817608894862884E-3 0
3.705272296744287E-3 0
3.378260219809463E-3 0
-5.812586983252707E-3 0
4.9194784478426255E-3 0
-2.1471539849562374E-3 0
-5.000067052860688E-6 0
2.319628577991493E-3 0
1.0365252891117272E-2 0
-1.0062739503808407E-3 0
-6.41149696431495E-3 0
1.9927556320770866E-3 0
-9.974122299021E-4 0
3.448997924793806E-4 0
2.3684461890764058E-3 0
4.848480412143901E-1 0
2.366966879600456E-3 0
2.4525555771559007E-4 0
3.844632996144019E-3 0
-2.2951747746065716E-4 0
-2.4266264276422993E-4 0
-1.402040441249288E-3 0
5.587921516633495E-3 0
1.5775130937184403E-3 0
-4.2591723021781025E-4 0
1.864135737967568E-3 0
-4.200798776751147E-3 0
-2.1413386704627123E-3 0
-2.2012846485348738E-3 0
-4.063900894945337E-3 0
1.6290400535854787E-3 0
-6.69894710853641E-4 0
1.0576962728991311E-3 0
5.420242256488531E-3 0
-1.8462371278470066E-3 0
-3.509259031341208E-5 0
-5.934880102437802E-4 0
4.183304547145054E-3 0
-1.0617176723693726E-3 0
2.4184778122743546E-3 0
-4.426107797372023E-3 0
2.417739056652273E-3 0
-7.739004914798288E-4 0
1.6756465818567822E-3 0
-6.195518754766212E-3 0
-9.204883064924634E-4 0
1.0413812074740484E-2 0
2.6433027587393298E-3 0
5.786354488650007E-5 0
-1.8885518884561245E-3 0
5.429849194724957E-3 0
-5.9229525688951614E-3 0
3.5108293174649853E-3 0
3.486766500076292E-3 0
-5.851423898715269E-3 0
4.948935699003527E-3 0
-2.237896215466757E-3 0
1.255481780705172E-4 0
2.1700920896610245E-3 0
1.0565189927530293E-2 0
-1.1433422878969217E-3 0
-6.330718747441105E-3 0
1.8672218738782637E-3 0
5.248575513555306E-3 0
2.426964507952697E-4 0
2.366966879600452E-3 0
4.8484730081512317E-1 0
2.371582263780418E-3 0
2.639453553564216E-4 0
3.890741109363948E-3 0
-1.4318662644522475E-4 0
-9.588345041956058E-5 0
-1.218402304613037E-3 0
5.846245283494485E-3 0
1.6004734991916835E-3 0
-5.899472796118712E-4 0
1.9355116320078443E-3 0
-4.087518917000762E-3 0
-2.2516649240898173E-3 0
-2.07483525673627E-3 0
-3.949283571604819E-3 0
1.7353086087528557E-3 0
-6.080725147960373E-4 0
1.0679006367983817E-3 0
5.48352321200392E-3 0
-1.889125128501443E-3 0
-9.607971624274869E-5 0
-3.978682868351626E-4 0
2.2667435521496124E-3 0
-7.73565050202976E-4 0
2.4232277287124493E-3 0
-4.4193192343418035E-3 0
2.4264393248289483E-3 0
-7.618037069147261E-4 0
1.6949915815588743E-3 0
-6.162639864922198E-3 0
-8.564629950690961E-4 0
1.0531247514437713E-2 0
2.8533676276321623E-3 0
3.747574912162311E-4 0
-1.8339094111694222E-3 0
5.318413865867042E-3 0
-5.801271978483889E-3 0
3.2192825568338164E-3 0
3.3661262712524832E-3 0
-5.8840913752706515E-3 0
5.08899564770183E-3 0
-2.323890630978318E-3 0
3.263955496289943E-4 0
1.9098831114691846E-3 0
1.0913690624615292E-2 0
-1.550766785471084E-3 0
-6.346228907092172E-3 0
-3.8755641417566447E-4 0
3.8297953903981075E-3 0
2.4525555771559863E-4 0
2.3715822637804425E-3 0
4.8485716536052287E-1 0
2.3928154698359743E-3 0
3.0533677344531145E-4 0
3.958669118009573E-3 0
-4.1202188226763626E-5 0
4.22092516017855E-6 0
-1.1348944000879114E-3 0
5.648498468998145E-3 0
1.5038226395910387E-3 0
-4.430494105014753E-4 0
1.788598189650634E-3 0
-4.040660299663708E-3 0
-1.9886746229254098E-3 0
-1.8800479248943344E-3 0
-3.827833631443831E-3 0
1.8297615685985901E-3 0
-5.650936862792866E-4 0
1.0396445047396092E-3 0
5.5904808669922385E-3 0
-1.9922887949290606E-3 0
-1.8396438500241502E-4 0
-8.546631234252589E-3 0
1.671855389504466E-3 0
-7.602116925232017E-4 0
2.436818070838876E-3 0
-4.409263620038497E-3 0
2.430365203937665E-3 0
-7.646491212498852E-4 0
1.687104680682144E-3 0
-6.151863897343506E-3 0
-7.975634153856422E-4 0
1.0781512784378494E-2 0
3.0233312601621164E-3 0
3.7775134551596725E-4 0
-1.8261744093523921E-3 0
4.87535488744079E-3 0
-5.86176533265494E-3 0
3.3459718569193177E-3 0
3.5531743689660327E-3 0
-5.8549078055947085E-3 0
5.224074707525096E-3 0
-2.423621238719729E-3 0
4.7466954451695067E-4 0
1.645337199433303E-3 0
1.116186229296179E-2 0
-1.5078123357822391E-3 0
-5.173652351962329E-4 0
-2.705444226448283E-4 0
3.8446329961440077E-3 0
2.639453553564256E-4 0
2.392815469835979E-3 0
4.848802407074546E-1 0
2.417449532087071E-3 0
3.299586164381095E-4 0
3.9825454303278295E-3 0
-4.0729618930127516E-5 0
-5.297776828958231E-5 0
-1.2909256613138674E-3 0
5.9087514704862865E-3 0
1.5701887318289407E-3 0
-5.067597658688879E-4 0
1.7937658392116168E-3 0
-3.8333878647094986E-3 0
-1.8154810294535224E-3 0
-1.7068959825047752E-3 0
-3.7861952544407333E-3 0
1.9103605594479585E-3 0
-6.179301820612406E-4 0
1.024866393265134E-3 0
5.576213468503207E-3 0
-1.8919074626074794E-3 0
-1.3872190683180232E-3 0
-6.211850968637221E-3 0
1.6967195073861344E-3 0
-7.403111592362377E-4 0
2.4441073023164445E-3 0
-4.4198365247521566E-3 0
2.3987970726813746E-3 0
-8.178424710526253E-4 0
1.6201466487982155E-3 0
-6.227199527106499E-3 0
-7.899349422242426E-4 0
1.069764762278925E-2 0
3.1425629201472247E-3 0
5.124590657287535E-4 0
-1.6822004845199168E-3 0
5.135043400469295E-3 0
-5.441997474538146E-3 0
3.4966194100059735E-3 0
3.685388018869812E-3 0
-5.878206720997462E-3 0
5.288829434143578E-3 0
-2.472241460391113E-3 0
4.214046391609002E-4 0
1.9322791476632335E-3 0
1.103497165849677E-2 0
-2.233279302319304E-3 0
-3.261427248691112E-4 0
-2.2951747746065334E-4 0
3.890741109363937E-3 0
3.0533677344531053E-4 0
2.4174495320870262E-3 0
4.848740021294056E-1 0
2.368430190229903E-3 0
2.3568341773246094E-4 0
3.8493293600313345E-3 0
-1.8809988679295255E-4 0
-1.4303250983718145E-4 0
-1.3822939666226224E-3 0
5.840722232387454E-3 0
1.3862882020498906E-3 0
-4.851855068318761E-4 0
1.9602209462158617E-3 0
-3.6188877328780862E-3 0
-1.69612331508177E-3 0
-1.6088461244123406E-3 0
-3.8616989016907848E-3 0
2.007026515289048E-3 0
-8.247615072605873E-4 0
1.2298148340526174E-3 0
5.516830724270458E-3 0
1.404327858155545E-2 0
-9.631935597702793E-4 0
-6.175148290735107E-3 0
1.7198240792250126E-3 0
-7.410477285168068E-4 0
2.4145836986209346E-3 0
-4.480571053621877E-3 0
2.3064646388956268E-3 0
-9.407129158178758E-4 0
1.4856641485007636E-3 0
-6.339289658855797E-3 0
-7.874553450995013E-4 0
1.1421013261709585E-2 0
3.2811228481559864E-3 0
6.155700959974208E-4 0
-1.4517534118423298E-3 0
5.317178858622571E-3 0
-5.35000309723796E-3 0
3.5045069339430927E-3 0
3.736407620245357E-3 0
-5.984215578263106E-3 0
5.386292360829083E-3 0
-2.580704630979989E-3 0
2.6931167716315416E-4 0
2.4130469521715992E-3 0
7.232294883533094E-3 0
-1.552723374384333E-3 0
-2.4266264276423262E-4 0
-1.4318662644522196E-4 0
3.958669118009572E-3 0
3.299586164381229E-4 0
2.3684301902299E-3 0
4.847265809784545E-1 0
2.1194913056308503E-3 0
-7.346225044937015E-5 0
3.485900599236314E-3 0
-4.091865491319649E-4 0
-2.383488395396805E-4 0
-1.4909710718922667E-3 0
5.669503837669306E-3 0
1.706295976108931E-3 0
-2.0192796266615205E-4 0
2.1852742464650472E-3 0
-3.5216842470055135E-3 0
-1.7064418395983756E-3 0
-1.6260847175967247E-3 0
-4.0333675228783495E-3 0
2.0828502435866585E-3 0
-1.0600972249584647E-3 0
1.3473589432309917E-3 0
3.3226930764622994E-3 0
1.0331373526928122E-2 0
-9.171005405235839E-4 0
-6.152066978896952E-3 0
1.7086711581750754E-3 0
-7.875696155116341E-4 0
2.3315349337728946E-3 0
-4.608241346277713E-3 0
2.1331373858311693E-3 0
-1.109091439859409E-3 0
1.3452583862273563E-3 0
-6.260250766905483E-3 0
-6.556441039197862E-4 0
1.1433371512241292E-2 0
3.1588524361476737E-3 0
6.338077531143821E-4 0
-1.4920208033219354E-3 0
5.341187412808718E-3 0
-5.373582429565459E-3 0
3.4639213155982485E-3 0
3.783029856236164E-3 0
-6.197097527409545E-3 0
5.626902445462507E-3 0
-2.823229108565886E-3 0
2.2658374911041883E-4 0
1.6203643160403553E-3 0
5.378606386346105E-3 0
-1.4020404412492867E-3 0
-9.588345041956341E-5 0
-4.1202188226772936E-5 0
3.9825454303278164E-3 0
2.3568341773247154E-4 0
2.1194913056308364E-3 0
4.8432940108529404E-1 0
1.6698398269051082E-3 0
-4.319742018705812E-4 0
3.509568465926668E-3 0
-2.5542404511910905E-4 0
-1.9056666927838557E-4 0
-1.1334730077285267E-3 0
6.038677657465128E-3 0
1.9725039458455013E-3 0
-5.013001872754749E-5 0
2.205128635908005E-3 0
-3.6417149492503757E-3 0
-1.8350781217709635E-3 0
-1.7599614982495954E-3 0
-4.231588412927899E-3 0
2.006287331997136E-3 0
-9.736986800360269E-4 0
-2.9122557200149678E-5 0
2.5132920552021305E-3 0
1.037686994072789E-2 0
-8.878044282945187E-4 0
-6.154094529128216E-3 0
1.6643262571258192E-3 0
-8.705803594088912E-4 0
2.172897929870325E-3 0
-4.8964104498565595E-3 0
1.7960625669280732E-3 0
-1.4614276143413447E-3 0
1.3114377085559307E-3 0
-6.477214672706899E-3 0
-8.104298159669856E-4 0
1.0904903042578906E-2 0
3.334783369950395E-3 0
7.494126438721032E-4 0
-1.4666037022740307E-3 0
5.359353892875412E-3 0
-5.489529789122474E-3 0
3.441545081232641E-3 0
3.766830710711781E-3 0
-6.408730048234054E-3 0
5.729327475134493E-3 0
-2.5929991540651555E-3 0
-9.370338489231761E-4 0
1.3474245107237136E-3 0
5.58792151663349E-3 0
-1.2184023046130355E-3 0
4.220925160180958E-6 0
-4.072961893012293E-5 0
3.849329360031326E-3 0
-7.34622504493662E-5 0
1.6698398269051054E-3 0
4.8387571198761814E-1 0
1.4915032701239596E-3 0
-2.0082045476786602E-4 0
3.962142190928107E-3 0
-1.3222814794011363E-4 0
1.2176671091010787E-4 0
-7.231977709274291E-4 0
6.259417940284777E-3 0
1.988340000462406E-3 0
-2.413592744830519E-4 0
2.020877135679005E-3 0
-3.893354076564627E-3 0
-1.97123577115667E-3 0
-1.9626896137108036E-3 0
-4.306114509779598E-3 0
1.8630396190992085E-3 0
-2.7237376848514064E-3 0
2.4347790743778483E-5 0
2.578719919404895E-3 0
1.0466587713254571E-2 0
-8.269751547694797E-4 0
-6.166285347820949E-3 0
1.6200087588586502E-3 0
-1.0370518885291044E-3 0
1.7406732326314314E-3 0
-5.387462567693313E-3 0
1.5684743957742491E-3 0
-1.0941217120093631E-3 0
1.7568082587929067E-3 0
-6.6590001038799055E-3 0
-6.951177871165334E-4 0
1.1222438345599734E-2 0
3.481280061753049E-3 0
8.698319026389741E-4 0
-1.703592249495864E-3 0
5.3841207525820445E-3 0
-5.713339786999612E-3 0
3.491229895041567E-3 0
3.624488944943792E-3 0
-6.286009788693279E-3 0
5.518399605501972E-3 0
2.374902073270209E-3 0
-4.4824635999984137E-4 0
1.5775130937184412E-3 0
5.846245283494491E-3 0
-1.134894400087906E-3 0
-5.297776828958407E-5 0
-1.8809988679295618E-4 0
3.4859005992363156E-3 0
-4.319742018705759E-4 0
1.4915032701239858E-3 0
4.8349395070452694E-1 0
1.2150006549692925E-3 0
-1.895819490732032E-4 0
4.032226058519713E-3 0
5.749524163810983E-4 0
8.638461627377758E-4 0
-7.184505985612346E-4 0
6.021036585381537E-3 0
1.7475052580942746E-3 0
-5.613609539496046E-4 0
1.911609764235533E-3 0
-4.192262668828553E-3 0
-2.113792334766425E-3 0
-2.2663810024044677E-3 0
-4.322679005085323E-3 0
6.8610565056379065E-3 0
-1.8098301629708897E-3 0
-2.2854249494147598E-6 0
2.8548204529747915E-3 0
1.0737226284640449E-2 0
-7.518416168803934E-4 0
-6.080370416231829E-3 0
1.450253112590524E-3 0
-1.7355707544071128E-3 0
1.199279349197723E-3 0
-5.035727197328312E-3 0
2.579816259172037E-3 0
-6.067086276721038E-4 0
1.3368310431624074E-3 0
-6.478479685868726E-3 0
-4.243021908747496E-4 0
1.1633433324331213E-2 0
3.5013839602957473E-3 0
7.248780458130389E-4 0
-2.0149328277442907E-3 0
5.515076026980954E-3 0
-6.313628146896082E-3 0
3.617604410770171E-3 0
3.4186282121761004E-3 0
-6.128267920897312E-3 0
-5.487708907760608E-3 0
1.832527855297689E-3 0
-4.2591723021781036E-4 0
1.6004734991916815E-3 0
5.648498468998147E-3 0
-1.290925661313861E-3 0
-1.4303250983718578E-4 0
-4.0918654913197895E-4 0
3.509568465926653E-3 0
-2.008204547678886E-4 0
1.215000654969303E-3 0
4.834897979021334E-1 0
1.5394549920787815E-3 0
-3.0554743711143644E-4 0
4.2763208955575735E-3 0
5.738450259319481E-4 0
1.2279885560392435E-4 0
-1.13024192307993E-3 0
5.651839411505122E-3 0
1.436875734355789E-3 0
-6.177551419070776E-4 0
1.98459520096579E-3 0
-4.359025980633794E-3 0
-1.889829832478169E-3 0
-2.349612451332356E-3 0
-7.676123785247229E-3 0
5.337131866594225E-3 0
-1.8185065341732693E-3 0
6.170825157748236E-4 0
3.0985844089694123E-3 0
1.0689559800555398E-2 0
-5.818858009284732E-4 0
-6.241097557710246E-3 0
9.448594664677197E-4 0
-1.6425455496889676E-3 0
1.817634424971192E-3 0
-4.4999255074394204E-3 0
2.721860569156902E-3 0
-1.150513077226496E-3 0
1.602112746664679E-3 0
-5.6975913937846135E-3 0
-2.0305976137993754E-4 0
1.1387486026269756E-2 0
2.936179973731564E-3 0
7.39200205999331E-4 0
-2.182475497719626E-3 0
5.531452246648012E-3 0
-6.975281824131292E-3 0
4.302796635616286E-3 0
3.0467339578989644E-3 0
-2.905187285217684E-3 0
-4.26811356388679E-3 0
1.8641357379675719E-3 0
-5.899472796118715E-4 0
1.503822639591035E-3 0
5.9087514704862865E-3 0
-1.3822939666226237E-3 0
-2.38348839539683E-4 0
-2.554240451191161E-4 0
3.962142190928107E-3 0
-1.8958194907319506E-4 0
1.5394549920787898E-3 0
4.817456299439551E-1 0
1.3432210948964094E-3 0
-3.0682867778763546E-4 0
4.038043753894097E-3 0
-1.4593236456012938E-4 0
-1.6833947959092455E-4 0
-1.5158040674171003E-3 0
5.851078727868817E-3 0
1.610125074661921E-3 0
-5.827404493009637E-4 0
2.229558404849617E-3 0
-4.568325803984256E-3 0
-2.1258309936276138E-3 0
5.211789198085167E-3 0
-5.6963560206295775E-3 0
5.530255152911621E-3 0
-1.6182894391576687E-3 0
4.815383740926441E-4 0
3.130410321102396E-3 0
1.1456840963050548E-2 0
-7.008310365795604E-4 0
-6.639642635047389E-3 0
1.508661202967151E-3 0
-1.2491417793978547E-3 0
2.236545480022246E-3 0
-5.084881359185976E-3 0
2.503659076204195E-3 0
-6.607098952309396E-4 0
1.9588852313087535E-3 0
-6.359470195143322E-3 0
-7.486183942037094E-4 0
1.1653459391839597E-2 0
2.958747991488603E-3 0
9.849423991300503E-4 0
-2.6362235421406163E-3 0
6.1467211179212E-3 0
-7.164125221192893E-3 0
4.325533123242024E-3 0
-2.905187285217538E-3 0
-2.191392380768329E-3 0
-4.200798776751152E-3 0
1.9355116320078434E-3 0
-4.430494105014718E-4 0
1.5701887318289411E-3 0
5.840722232387454E-3 0
-1.4909710718922645E-3 0
-1.9056666927838055E-4 0
-1.3222814794011333E-4 0
4.032226058519707E-3 0
-3.0554743711144045E-4 0
1.3432210948964107E-3 0
4.817456299439551E-1 0
1.5417935795015662E-3 0
-2.002007106257828E-4 0
3.988146626488279E-3 0
-3.0266884813810784E-4 0
-1.6782105271710506E-4 0
-1.4704706122224249E-3 0
5.9910930508679724E-3 0
1.4748931352207913E-3 0
-7.110829514741292E-4 0
2.125602329071248E-3 0
-4.653488859607526E-3 0
5.211789198085101E-3 0
3.5840194225110356E-3 0
-6.023358527081867E-3 0
5.102793893855327E-3 0
-1.9299614379291068E-3 0
5.246116647735872E-4 0
3.2452951468150094E-3 0
1.147855844490107E-2 0
-6.480018536265013E-4 0
-6.410853048054155E-3 0
1.9792641948881327E-3 0
-6.651979880918425E-4 0
2.5036590762042045E-3 0
-5.084881359186004E-3 0
2.233601429096814E-3 0
-1.2357738058632784E-3 0
1.4747583855462055E-3 0
-6.57231249969539E-3 0
-8.200102112682841E-4 0
1.165458284908501E-2 0
2.81134880678412E-3 0
9.719062656744819E-4 0
-2.3799514328693735E-3 0
6.4165361715275E-3 0
-6.445454860698581E-3 0
-5.4840201288586E-3 0
-2.128858933141499E-3 0
-2.1413386704627136E-3 0
-4.087518917000761E-3 0
1.7885981896506328E-3 0
-5.067597658688929E-4 0
1.3862882020498886E-3 0
5.669503837669312E-3 0
-1.1334730077285202E-3 0
1.2176671091011443E-4 0
5.749524163811046E-4 0
4.2763208955575865E-3 0
-3.0682867778763297E-4 0
1.5417935795015558E-3 0
4.8348369408141534E-1 0
1.232781709240315E-3 0
-2.402919521722944E-4 0
3.580866358872478E-3 0
-5.217465932494681E-4 0
1.822592400193511E-5 0
-1.5006840144536385E-3 0
5.886813738716461E-3 0
1.4076869854545912E-3 0
-3.5159924691081966E-4 0
1.9262787971561376E-3 0
-7.678188539413278E-3 0
3.246405679770105E-3 0
3.44078171955609E-3 0
-6.04359781963301E-3 0
4.800099604745589E-3 0
-1.6741137597682803E-3 0
4.1000448679885454E-4 0
3.1397013983310617E-3 0
1.1271478273414957E-2 0
-1.466981420868514E-4 0
-5.716302701536843E-3 0
1.6021176814168371E-3 0
-1.146016794892254E-3 0
2.718908328758136E-3 0
-4.497439050157347E-3 0
1.8124244560707593E-3 0
-1.6298554884593614E-3 0
9.165660433680396E-4 0
-6.182612461819771E-3 0
-6.928644597307974E-4 0
1.0881953037309933E-2 0
2.803294318797816E-3 0
1.0555946215995693E-3 0
-2.313158669537539E-3 0
5.869568502480701E-3 0
2.3581525332700484E-3 0
-4.10448712945244E-3 0
-2.2012846485348703E-3 0
-2.2516649240898203E-3 0
-4.040660299663709E-3 0
1.793765839211615E-3 0
-4.851855068318758E-4 0
1.7062959761089383E-3 0
6.038677657465133E-3 0
-7.2319777092742E-4 0
8.638461627377823E-4 0
5.738450259319555E-4 0
4.038043753894099E-3 0
-2.0020071062579049E-4 0
1.2327817092403037E-3 0
4.8345832161845415E-1 0
1.5587435136028738E-3 0
-5.447828880190598E-4 0
3.6575724615095285E-3 0
-4.311740583570037E-4 0
2.749411859924202E-4 0
-1.5534397920060248E-3 0
6.316352868018532E-3 0
1.1920629824975354E-3 0
-3.1064548903351916E-4 0
6.87043187982364E-3 0
-5.806966218539435E-3 0
3.5469256574842314E-3 0
3.2178334393627925E-3 0
-5.8174691436295245E-3 0
5.0969550584339255E-3 0
-1.7106905218909464E-3 0
5.288031672302623E-4 0
3.6089401831285854E-3 0
1.1591652429629893E-2 0
-4.242801692039883E-4 0
-6.459795635082959E-3 0
1.3164148938598023E-3 0
-5.93303468414319E-4 0
2.5746238475001324E-3 0
-5.039758451192612E-3 0
1.213185321300858E-3 0
-1.7553611822627166E-3 0
1.4619215861765018E-3 0
-6.057143970816135E-3 0
-8.458147951333574E-4 0
1.0926630511522492E-2 0
2.5968862295335186E-3 0
2.1947292053980773E-4 0
-1.9976148437926573E-3 0
-8.951553102588102E-4 0
1.6153880886085163E-3 0
-4.06390089494534E-3 0
-2.0748352567362695E-3 0
-1.988674622925406E-3 0
-3.833387864709496E-3 0
1.9602209462158643E-3 0
-2.0192796266615035E-4 0
1.9725039458455096E-3 0
6.259417940284781E-3 0
-7.184505985612325E-4 0
1.227988556039261E-4 0
-1.4593236456013022E-4 0
3.988146626488283E-3 0
-2.402919521722937E-4 0
1.5587435136028601E-3 0
4.837620926429232E-1 0
1.8478310708144577E-3 0
-3.30079812733521E-4 0
4.192615678493914E-3 0
-4.782497686846466E-4 0
5.444085136587253E-4 0
-1.8895415683167322E-3 0
6.262598877500961E-3 0
1.0864714996969354E-3 0
-2.7456947717409965E-3 0
4.96077645819235E-3 0
-5.786865821881863E-3 0
3.4307769593427727E-3 0
3.3753600170222707E-3 0
-5.502923781012285E-3 0
5.182877498373839E-3 0
-1.564036444501571E-3 0
8.04769020549312E-4 0
3.4812343398476797E-3 0
1.1264187891897233E-2 0
-7.51422517929482E-4 0
-6.607522828449809E-3 0
1.7228110188527027E-3 0
-1.0814969245075746E-3 0
1.5824497909516792E-3 0
-5.435100683533337E-3 0
1.8237740997179858E-3 0
-1.1436581551784895E-3 0
1.7187964780646227E-3 0
-6.2009725839848E-3 0
-9.278795407587355E-4 0
1.0738266985287065E-2 0
2.257363693982878E-3 0
1.7987066639591536E-4 0
1.5400466548299082E-3 0
-7.098075163957252E-4 0
1.6290400535854787E-3 0
-3.949283571604818E-3 0
-1.8800479248943323E-3 0
-1.8154810294535194E-3 0
-3.61888773287809E-3 0
2.185274246465054E-3 0
-5.013001872754027E-5 0
1.988340000462406E-3 0
6.021036585381534E-3 0
-1.1302419230799403E-3 0
-1.6833947959092618E-4 0
-3.0266884813810334E-4 0
3.5808663588724793E-3 0
-5.447828880190563E-4 0
1.8478310708144733E-3 0
4.8406274091620505E-1 0
2.4919166346653167E-3 0
-2.4372779470963513E-4 0
4.553186080892254E-3 0
-6.760183330202673E-4 0
6.036629547644999E-4 0
-2.0596302663915063E-3 0
6.006030834264107E-3 0
5.837358526614143E-6 0
-2.123142373480325E-3 0
4.98592190643837E-3 0
-5.852733223862175E-3 0
3.555447106713997E-3 0
3.452461457928307E-3 0
-5.4202117424739715E-3 0
5.301384584878958E-3 0
-1.466546416034627E-3 0
8.145212119349931E-4 0
3.227314928467522E-3 0
1.1020766269231139E-2 0
-9.112344234724902E-4 0
-6.409696470426616E-3 0
1.2832827888031803E-3 0
-1.4812784757268222E-3 0
1.8790518299494968E-3 0
-5.053569586363733E-3 0
2.3995691256210607E-3 0
-1.1412752103641172E-3 0
1.9267634153942764E-3 0
-6.322634202952669E-3 0
-1.0038258311814538E-3 0
1.0789962866281708E-2 0
2.3830360455798436E-3 0
7.366606924798346E-3 0
1.051528427412906E-3 0
-6.698947108536458E-4 0
1.7353086087528618E-3 0
-3.8278336314438314E-3 0
-1.7068959825047734E-3 0
-1.6961233150817646E-3 0
-3.521684247005505E-3 0
2.205128635908007E-3 0
-2.4135927448304986E-4 0
1.7475052580942728E-3 0
5.65183941150512E-3 0
-1.5158040674171053E-3 0
-1.678210527171003E-4 0
-5.217465932494636E-4 0
3.6575724615095363E-3 0
-3.300798127335354E-4 0
2.4919166346653245E-3 0
4.842086507763796E-1 0
3.039559836996689E-3 0
-4.6490777970149036E-4 0
4.813940102079118E-3 0
-9.655910916252675E-4 0
3.9029310181834125E-4 0
-1.9487838409555957E-3 0
3.2858562671450636E-3 0
-5.5115809383327425E-6 0
-2.2413481857602845E-3 0
5.078396955350304E-3 0
-5.8765361368395734E-3 0
3.6550831884043997E-3 0
3.4795447339910643E-3 0
-5.373521613540484E-3 0
5.39903561119838E-3 0
-1.6316573881283015E-3 0
8.298310231415916E-4 0
2.955676167771535E-3 0
1.1608627917431107E-2 0
-7.751787368597988E-4 0
-6.202106482703961E-3 0
1.3569587412574267E-3 0
-1.2155690882978364E-3 0
2.3598450987155667E-3 0
-4.961381795540864E-3 0
2.7929664523654034E-3 0
-1.3353882079895395E-3 0
2.314961768648213E-3 0
-6.669917396232146E-3 0
-6.687611992200575E-4 0
1.0842159874797152E-2 0
-2.440874690593441E-3 0
5.372971970695326E-3 0
1.0576962728991272E-3 0
-6.080725147960392E-4 0
1.8297615685985927E-3 0
-3.7861952544407306E-3 0
-1.608846124412339E-3 0
-1.7064418395983784E-3 0
-3.6417149492503718E-3 0
2.020877135679004E-3 0
-5.613609539496057E-4 0
1.4368757343557906E-3 0
5.851078727868818E-3 0
-1.4704706122224216E-3 0
1.8225924001938157E-5 0
-4.311740583569972E-4 0
4.192615678493907E-3 0
-2.437277947096362E-4 0
3.0395598369967053E-3 0
4.8397372588105686E-1 0
3.5308038578119676E-3 0
-9.475233734204527E-4 0
5.147597456635167E-3 0
-1.2270964216761378E-3 0
1.5127517114338452E-4 0
1.4051498465823948E-2 0
2.308197592135548E-3 0
1.0525829917022515E-4 0
-2.348687608245683E-3 0
5.200552471267049E-3 0
-5.893951494950742E-3 0
3.7362784406934865E-3 0
3.48891691634642E-3 0
-5.419310558759556E-3 0
5.5185684892668984E-3 0
-1.7561802480822997E-3 0
9.438931469104091E-4 0
2.9938689385829256E-3 0
1.161946190199069E-2 0
-8.975534725040999E-4 0
-6.3159143868686245E-3 0
1.584391918102029E-3 0
-1.211570409081224E-3 0
2.7680788174877014E-3 0
-5.0992303494715435E-3 0
3.169946544562516E-3 0
-1.6531762206983857E-3 0
2.8004143378635325E-3 0
-7.197993621282681E-3 0
-5.28742083256622E-4 0
-2.101765610965487E-4 0
-1.8169794089704552E-3 0
5.420242256488535E-3 0
1.0679006367983826E-3 0
-5.650936862792783E-4 0
1.910360559447971E-3 0
-3.8616989016907913E-3 0
-1.6260847175967245E-3 0
-1.8350781217709644E-3 0
-3.8933540765646226E-3 0
1.9116097642355291E-3 0
-6.177551419070717E-4 0
1.6101250746619214E-3 0
5.991093050867972E-3 0
-1.5006840144536472E-3 0
2.749411859924294E-4 0
-4.7824976868465606E-4 0
4.553186080892256E-3 0
-4.64907779701464E-4 0
3.530803857811942E-3 0
4.834264358325864E-1 0
4.125741737520469E-3 0
-1.590671080437146E-3 0
5.4030127903011834E-3 0
-1.0701327776956827E-3 0
-1.3069862827652225E-3 0
1.035233689295377E-2 0
2.148929222929439E-3 0
3.048570289583815E-4 0
-2.4374564871245466E-3 0
5.288776083381732E-3 0
-5.9682999171035995E-3 0
3.8133826968328884E-3 0
3.4856570039808136E-3 0
-5.652473504484327E-3 0
5.5539852449117575E-3 0
-2.1882909561967805E-3 0
9.743305827373503E-4 0
2.8219606231768305E-3 0
1.0887767420238458E-2 0
-8.84719129349144E-4 0
-6.261850754432308E-3 0
1.8826727370416397E-3 0
-1.3657724816469857E-3 0
3.1540722441333897E-3 0
-5.302652799655061E-3 0
3.4745085573888346E-3 0
-1.9282252968566601E-3 0
2.80575707917523E-3 0
-7.117107325586097E-3 0
-8.170477590129178E-4 0
-7.138712364883684E-5 0
-1.846237127847005E-3 0
5.483523212003922E-3 0
1.0396445047396185E-3 0
-6.179301820612339E-4 0
2.0070265152890487E-3 0
-4.033367522878352E-3 0
-1.7599614982495902E-3 0
-1.9712357711566715E-3 0
-4.192262668828551E-3 0
1.9845952009657905E-3 0
-5.827404493009632E-4 0
1.4748931352207915E-3 0
5.886813738716452E-3 0
-1.5534397920060168E-3 0
5.444085136587044E-4 0
-6.760183330202481E-4 0
4.813940102079107E-3 0
-9.475233734204461E-4 0
4.12574173752044E-3 0
4.826439408631735E-1 0
4.888998391908041E-3 0
-1.9133090084183053E-3 0
5.118870030673074E-3 0
-8.790842527967736E-3 0
-1.015542534736015E-3 0
1.0551592115165355E-2 0
1.8995621783521066E-3 0
4.747754046035666E-4 0
-2.4584281369856406E-3 0
5.4097934452697295E-3 0
-6.175605550753969E-3 0
3.764614303162644E-3 0
3.461747426853404E-3 0
-6.360066288518777E-3 0
5.60163751391435E-3 0
-2.535608623339497E-3 0
8.712913468733634E-4 0
2.7331068638656673E-3 0
1.0973078586621113E-2 0
-8.984212412621448E-4 0
-6.320374660844031E-3 0
2.293406514509095E-3 0
-1.6765965778406007E-3 0
3.460600907861104E-3 0
-5.598648059499521E-3 0
3.7818797745804503E-3 0
-1.959493327313787E-3 0
2.4227387664182438E-3 0
5.80997328522511E-3 0
-6.672527819391054E-4 0
-3.509259031340957E-5 0
-1.8891251285014451E-3 0
5.59048086699224E-3 0
1.0248663932651376E-3 0
-8.247615072605869E-4 0
2.0828502435866585E-3 0
-4.231588412927896E-3 0
-1.962689613710807E-3 0
-2.113792334766423E-3 0
-4.359025980633791E-3 0
2.229558404849618E-3 0
-7.11082951474131E-4 0
1.407686985454586E-3 0
6.316352868018536E-3 0
-1.8895415683167348E-3 0
6.036629547644967E-4 0
-9.65591091625252E-4 0
5.147597456635158E-3 0
-1.5906710804371549E-3 0
4.888998391908001E-3 0
4.816121205440959E-1 0
5.53692303796616E-3 0
-1.407033086894404E-3 0
2.7287569250571044E-3 0
-6.416330516985219E-3 0
-1.148929606443138E-3 0
1.0913590613356049E-2 0
1.6555506019394328E-3 0
4.427423819991081E-4 0
-2.5558716840152497E-3 0
5.637547633838088E-3 0
-6.439882100106261E-3 0
3.5602207362366856E-3 0
3.6234393768696605E-3 0
-6.723454909681155E-3 0
6.368031755265322E-3 0
-2.6012620702134887E-3 0
8.037670009625715E-4 0
2.591054469997959E-3 0
1.0802527293213935E-2 0
-9.726591881473481E-4 0
-6.680585392279827E-3 0
2.775613401115636E-3 0
-1.949605696814363E-3 0
3.7717219945786295E-3 0
-6.069023301149611E-3 0
4.0257509140183365E-3 0
-1.769321386866937E-3 0
-2.075782178286667E-4 0
4.243614770438462E-3 0
-5.93488010243778E-4 0
-9.607971624274084E-5 0
-1.9922887949290545E-3 0
5.57621346850321E-3 0
1.2298148340526155E-3 0
-1.060097224958465E-3 0
2.006287331997133E-3 0
-4.306114509779591E-3 0
-2.2663810024044734E-3 0
-1.889829832478162E-3 0
-4.568325803984249E-3 0
2.125602329071246E-3 0
-3.515992469108192E-4 0
1.1920629824975404E-3 0
6.262598877500962E-3 0
-2.0596302663915046E-3 0
3.902931018183489E-4 0
-1.2270964216761348E-3 0
5.403012790301163E-3 0
-1.913309008418317E-3 0
5.53692303796611E-3 0
4.811965610398089E-1 0
4.522943859116764E-3 0
-1.5930881877102448E-3 0
1.991376250020867E-3 0
-6.330618256104104E-3 0
-1.5451349770519392E-3 0
1.1175779013489798E-2 0
1.953601499638921E-3 0
2.898032629018128E-4 0
-2.8199119972849764E-3 0
5.691953850535305E-3 0
-6.351309330673924E-3 0
3.352950713600245E-3 0
4.361407057157606E-3 0
-7.070401819950142E-3 0
6.322812770284747E-3 0
-2.3717714767307447E-3 0
2.851612515814551E-4 0
2.322636912799594E-3 0
1.0827383308070765E-2 0
-6.721464077550051E-4 0
-7.218399978732005E-3 0
2.7843401304736112E-3 0
-1.973315313699326E-3 0
4.020018568914175E-3 0
-6.132697234603668E-3 0
3.609986848170671E-3 0
3.70831212295112E-3 0
6.008712411904731E-5 0
4.183304547145051E-3 0
-3.978682868351631E-4 0
-1.839643850024158E-4 0
-1.8919074626074807E-3 0
5.516830724270452E-3 0
1.3473589432309904E-3 0
-9.736986800360234E-4 0
1.863039619099207E-3 0
-4.322679005085327E-3 0
-2.3496124513323513E-3 0
-2.1258309936276094E-3 0
-4.653488859607528E-3 0
1.9262787971561308E-3 0
-3.10645489033511E-4 0
1.086471499696934E-3 0
6.006030834264115E-3 0
-1.948783840955589E-3 0
1.5127517114336682E-4 0
-1.0701327776956664E-3 0
5.118870030673081E-3 0
-1.4070330868944337E-3 0
4.522943859116771E-3 0
4.8203590394533236E-1 0
3.7652418615836776E-3 0
-9.974292871595565E-4 0
1.8686633564009107E-3 0
-6.341247956461717E-3 0
-1.498137062175103E-3 0
1.1048414644950695E-2 0
2.4250337508524037E-3 0
2.2713879112693246E-4 0
-2.6180306747573675E-3 0
5.475279767070171E-3 0
-6.131396900173409E-3 0
3.191370245982543E-3 0
4.456609563480835E-3 0
-6.5765313009373974E-3 0
5.724931660329766E-3 0
-1.9944833486776007E-3 0
2.229843524980811E-4 0
2.408078700791763E-3 0
1.0841588103710761E-2 0
-5.407068918031287E-4 0
-7.13057640875876E-3 0
2.4130918505177027E-3 0
-1.774335893492108E-3 0
3.6085815128862105E-3 0
-5.548664218415161E-3 0
-8.421601776784915E-3 0
3.3303829404172534E-3 0
-1.061717672369371E-3 0
2.266743552149611E-3 0
-8.546631234252597E-3 0
-1.3872190683180262E-3 0
1.4043278581555447E-2 0
3.322693076462308E-3 0
-2.9122557200147872E-5 0
-2.7237376848514116E-3 0
6.861056505637904E-3 0
-7.6761237852472275E-3 0
5.211789198085166E-3 0
5.211789198085102E-3 0
-7.678188539413278E-3 0
6.870431879823636E-3 0
-2.745694771741003E-3 0
5.837358526615038E-6 0
3.2858562671450697E-3 0
1.4051498465823941E-2 0
-1.306986282765224E-3 0
-8.790842527967736E-3 0
2.728756925057102E-3 0
-1.593088187710236E-3 0
3.765241861583685E-3 0
6.799498559683569E-1 0
-4.010511523178892E-2 0
6.4591723301679746E-3 0
-3.153367010686003E-2 0
7.057838606316383E-3 0
4.8671561906955016E-4 0
2.0122447885860487E-2 0
-4.39884918657901E-2 0
-3.388401530481105E-3 0
9.704965308642212E-3 0
-2.0533517252427413E-2 0
3.2574867769603076E-2 0
8.63487173239928E-3 0
8.63487173239922E-3 0
3.254516438269477E-2 0
-2.0398643875527738E-2 0
9.367192044643693E-3 0
-2.737935474006129E-3 0
-4.508432988794206E-2 0
2.183456583758767E-2 0
-2.0868228506487375E-3 0
1.0726722891134362E-2 0
-3.656446829557726E-2 0
1.1695412576232645E-2 0
-4.473573626044742E-2 0
3.33038294041833E-3 0
-4.425260587025261E-3 0
2.4184778122743646E-3 0
-7.735650502029603E-4 0
1.67185538950446E-3 0
-6.211850968637223E-3 0
-9.631935597702774E-4 0
1.0331373526928119E-2 0
2.5132920552021257E-3 0
2.4347790743779818E-5 0
-1.8098301629708947E-3 0
5.337131866594231E-3 0
-5.696356020629578E-3 0
3.5840194225110356E-3 0
3.2464056797701013E-3 0
-5.806966218539434E-3 0
4.960776458192354E-3 0
-2.1231423734803276E-3 0
-5.511580938332675E-6 0
2.3081975921355508E-3 0
1.0352336892953772E-2 0
-1.0155425347360056E-3 0
-6.416330516985217E-3 0
1.991376250020861E-3 0
-9.974292871595624E-4 0
-4.0105115231788925E-2 0
5.956403468366915E-1 0
-2.9119304213162216E-2 0
4.737025290499603E-3 0
-2.3018719728813614E-2 0
5.104774561956794E-3 0
1.0038397143407492E-4 0
1.431970615887356E-2 0
-3.252664592816196E-2 0
-3.227319328310393E-3 0
5.831175783945701E-3 0
-1.5658014087720336E-2 0
2.5192462953801214E-2 0
6.886023240367926E-3 0
6.881867338898966E-3 0
2.433554030479151E-2 0
-1.4335679455489156E-2 0
7.041430218339941E-3 0
-1.5973514915015106E-3 0
-3.293046567924463E-2 0
1.620361821901263E-2 0
-2.0037974219221954E-3 0
8.209998998142074E-3 0
-2.6213505915247903E-2 0
6.50325629945226E-3 0
-1.061717672370883E-3 0
2.417063775967343E-3 0
-4.426107797372095E-3 0
2.4232277287124506E-3 0
-7.60211692523197E-4 0
1.6967195073861263E-3 0
-6.175148290735094E-3 0
-9.171005405235878E-4 0
1.0376869940727892E-2 0
2.5787199194048965E-3 0
-2.285424949419754E-6 0
-1.8185065341732648E-3 0
5.530255152911622E-3 0
-6.023358527081875E-3 0
3.440781719556082E-3 0
3.5469256574842335E-3 0
-5.786865821881861E-3 0
4.985921906438369E-3 0
-2.2413481857602785E-3 0
1.0525829917022661E-4 0
2.148929222929438E-3 0
1.0551592115165355E-2 0
-1.148929606443144E-3 0
-6.330618256104108E-3 0
1.8686633564009162E-3 0
6.459172330167987E-3 0
-2.9119304213162243E-2 0
5.956440227250501E-1 0
-2.911881223733259E-2 0
4.717809615802235E-3 0
-2.3091278994120466E-2 0
4.921603934436067E-3 0
-2.623198971092556E-4 0
1.3663041847523587E-2 0
-3.3455357785395365E-2 0
-4.0770642986236155E-3 0
6.096520689936709E-3 0
-1.5956574003386008E-2 0
2.4863159395191695E-2 0
6.524123013706306E-3 0
6.861967322235428E-3 0
2.3981221102211063E-2 0
-1.4401078439942717E-2 0
6.8289682311159835E-3 0
-1.5609266868237626E-3 0
-3.325331263422935E-2 0
1.650180470362449E-2 0
-2.3385301742615008E-3 0
7.711808426046655E-3 0
-2.543636789960978E-2 0
2.2667435521509446E-3 0
-7.783655703190994E-4 0
2.4177390566522904E-3 0
-4.419319234341799E-3 0
2.436818070838868E-3 0
-7.403111592362452E-4 0
1.7198240792250196E-3 0
-6.152066978896957E-3 0
-8.878044282945258E-4 0
1.0466587713254568E-2 0
2.85482045297479E-3 0
6.170825157748301E-4 0
-1.6182894391576755E-3 0
5.102793893855335E-3 0
-6.043597819633015E-3 0
3.217833439362787E-3 0
3.430776959342779E-3 0
-5.852733223862182E-3 0
5.078396955350302E-3 0
-2.348687608245678E-3 0
3.048570289583796E-4 0
1.8995621783521046E-3 0
1.0913590613356044E-2 0
-1.5451349770519381E-3 0
-6.341247956461716E-3 0
-3.153367010686002E-2 0
4.737025290499627E-3 0
-2.9118812237332585E-2 0
5.956395643717307E-1 0
-2.9145911227970923E-2 0
4.63379713001865E-3 0
-2.3284425552319084E-2 0
4.571190636150586E-3 0
-8.568865122998193E-4 0
1.2903352607242083E-2 0
-3.472609017456949E-2 0
-4.578260390211258E-3 0
6.786594406422216E-3 0
-1.613474850252872E-2 0
2.437126506491491E-2 0
7.359909133837871E-3 0
6.395967837815961E-3 0
2.343375011449877E-2 0
-1.4905745756218359E-2 0
6.5515904139463906E-3 0
-1.53239228708511E-3 0
-3.368878947795833E-2 0
1.690552383368226E-2 0
-1.9984573858868797E-3 0
6.392446190073378E-3 0
-8.546631234253583E-3 0
1.662557946096484E-3 0
-7.739004914798388E-4 0
2.4264393248289618E-3 0
-4.409263620038546E-3 0
2.444107302316466E-3 0
-7.410477285168209E-4 0
1.7086711581750826E-3 0
-6.1540945291282245E-3 0
-8.269751547694779E-4 0
1.0737226284640447E-2 0
3.098584408969422E-3 0
4.815383740926401E-4 0
-1.9299614379290995E-3 0
4.800099604745585E-3 0
-5.817469143629536E-3 0
3.375360017022273E-3 0
3.5554471067139972E-3 0
-5.876536136839571E-3 0
5.200552471267048E-3 0
-2.437456487124551E-3 0
4.7477540460356054E-4 0
1.6555506019394382E-3 0
1.1175779013489796E-2 0
-1.4981370621751009E-3 0
7.057838606316378E-3 0
-2.3018719728813614E-2 0
4.717809615802251E-3 0
-2.914591122797089E-2 0
5.955939317609809E-1 0
-2.9233792553115735E-2 0
4.471061638644618E-3 0
-2.3539320840522248E-2 0
4.215611379242522E-3 0
-1.155700200274492E-3 0
1.2639293487215398E-2 0
-3.3805396051105344E-2 0
-3.9032670361197497E-3 0
6.365925387572518E-3 0
-1.509981456230276E-2 0
2.3750619864748475E-2 0
5.895313117940949E-3 0
5.433211498952295E-3 0
2.296833973123658E-2 0
-1.5368997807578815E-2 0
6.388863478292478E-3 0
-1.3451726605815484E-3 0
-3.437921965871435E-2 0
1.7457468495695457E-2 0
-1.1715655822014445E-3 0
-1.3872190683173863E-3 0
-6.224739893182476E-3 0
1.6756465818567763E-3 0
-7.61803706914714E-4 0
2.430365203937727E-3 0
-4.41983652475213E-3 0
2.414583698620929E-3 0
-7.875696155116092E-4 0
1.6643262571257996E-3 0
-6.166285347820947E-3 0
-7.518416168803886E-4 0
1.0689559800555396E-2 0
3.1304103211023944E-3 0
5.246116647735856E-4 0
-1.6741137597682807E-3 0
5.096955058433919E-3 0
-5.50292378101228E-3 0
3.4524614579283168E-3 0
3.6550831884044014E-3 0
-5.893951494950739E-3 0
5.288776083381724E-3 0
-2.458428136985638E-3 0
4.427423819991056E-4 0
1.9536014996389163E-3 0
1.1048414644950696E-2 0
4.867156190695588E-4 0
5.104774561956781E-3 0
-2.3091278994120473E-2 0
4.633797130018626E-3 0
-2.923379255311571E-2 0
5.955046372755601E-1 0
-2.932271831932375E-2 0
4.392066443763224E-3 0
-2.3578388330918125E-2 0
4.329585520483772E-3 0
-5.761105799871089E-4 0
1.3532445528734723E-2 0
-3.5326528489144846E-2 0
-4.021075279055904E-3 0
5.938980673678414E-3 0
-1.5714967171348317E-2 0
2.2740255132076902E-2 0
5.269228844365023E-3 0
4.669333865145259E-3 0
2.2931310017883087E-2 0
-1.5867755230166765E-2 0
6.791925421730434E-3 0
-1.3380757798299732E-3 0
-3.4177465782337255E-2 0
1.671204515554779E-2 0
1.4043278581555107E-2 0
-9.746476776129156E-4 0
-6.1955187547662076E-3 0
1.6949915815588767E-3 0
-7.64649121249896E-4 0
2.398797072681381E-3 0
-4.480571053621917E-3 0
2.3315349337729337E-3 0
-8.70580359408916E-4 0
1.620008758858656E-3 0
-6.0803704162318275E-3 0
-5.818858009284708E-4 0
1.1456840963050555E-2 0
3.2452951468149994E-3 0
4.1000448679885063E-4 0
-1.7106905218909488E-3 0
5.182877498373836E-3 0
-5.420211742473964E-3 0
3.479544733991065E-3 0
3.7362784406934834E-3 0
-5.968299917103598E-3 0
5.409793445269723E-3 0
-2.555871684015259E-3 0
2.89803262901811E-4 0
2.4250337508524024E-3 0
2.0122447885860473E-2 0
1.0038397143409865E-4 0
4.9216039344360685E-3 0
-2.328442555231908E-2 0
4.471061638644611E-3 0
-2.9322718319323746E-2 0
5.955404471087005E-1 0
-2.912123243324068E-2 0
4.758138077784847E-3 0
-2.3098904470500344E-2 0
4.807849170937009E-3 0
-5.279821154410453E-4 0
1.4112071801515034E-2 0
-3.509746206094846E-2 0
-3.4580269197427415E-3 0
6.169773197074983E-3 0
-1.5908843908822523E-2 0
2.2007233854084034E-2 0
4.906956043229084E-3 0
4.152518452445565E-3 0
2.3474947424683403E-2 0
-1.6649230268833706E-2 0
8.117574471359522E-3 0
-2.798544798011226E-3 0
-3.360029736058958E-2 0
3.322693076462527E-3 0
1.0330879775942997E-2 0
-9.204883064924732E-4 0
-6.162639864922212E-3 0
1.68710468068215E-3 0
-8.178424710525943E-4 0
2.3064646388956758E-3 0
-4.608241346277768E-3 0
2.1728979298703483E-3 0
-1.0370518885291144E-3 0
1.4502531125905247E-3 0
-6.241097557710238E-3 0
-7.008310365795569E-4 0
1.1478558444901069E-2 0
3.1397013983310526E-3 0
5.28803167230261E-4 0
-1.5640364445015675E-3 0
5.301384584878956E-3 0
-5.373521613540483E-3 0
3.4889169163464253E-3 0
3.8133826968328897E-3 0
-6.175605550753968E-3 0
5.637547633838083E-3 0
-2.81991199728498E-3 0
2.2713879112693357E-4 0
-4.398849186579009E-2 0
1.4319706158873558E-2 0
-2.623198971092669E-4 0
4.57119063615057E-3 0
-2.353932084052223E-2 0
4.392066443763215E-3 0
-2.912123243324064E-2 0
5.961210255005758E-1 0
-2.817348639826912E-2 0
5.866970725975456E-3 0
-2.186303094629769E-2 0
5.634998405555952E-3 0
-1.3083514896105014E-4 0
1.4555663841233463E-2 0
-3.355381569782382E-2 0
-4.3481917664270325E-3 0
5.232692723424539E-3 0
-1.6771935534480534E-2 0
2.162802879037548E-2 0
4.98844045234498E-3 0
4.069243044790248E-3 0
2.4488266604948395E-2 0
-1.7470834138712917E-2 0
9.698116185636436E-3 0
-3.465620994794914E-3 0
-2.9122557200421718E-5 0
2.537291772666921E-3 0
1.0413812074740491E-2 0
-8.564629950690906E-4 0
-6.151863897343511E-3 0
1.6201466487981877E-3 0
-9.407129158178993E-4 0
2.133137385831209E-3 0
-4.896410449856558E-3 0
1.7406732326314333E-3 0
-1.7355707544071037E-3 0
9.448594664677221E-4 0
-6.6396426350474E-3 0
-6.480018536264902E-4 0
1.127147827341495E-2 0
3.6089401831285854E-3 0
8.047690205493163E-4 0
-1.4665464160346306E-3 0
5.399035611198382E-3 0
-5.419310558759556E-3 0
3.485657003980818E-3 0
3.764614303162644E-3 0
-6.439882100106262E-3 0
5.691953850535306E-3 0
-2.6180306747573706E-3 0
-3.3884015304811036E-3 0
-3.2526645928161964E-2 0
1.3663041847523616E-2 0
-8.568865122998088E-4 0
4.2156113792425134E-3 0
-2.3578388330918115E-2 0
4.758138077784842E-3 0
-2.8173486398269106E-2 0
5.976965526806075E-1 0
-2.6317238829692682E-2 0
7.400495208199252E-3 0
-2.163259478988933E-2 0
5.440072204868204E-3 0
-5.833639134205353E-4 0
1.2604535684814256E-2 0
-3.5069473754861226E-2 0
-5.6914382061720266E-3 0
4.564601687339533E-3 0
-1.6918112899794256E-2 0
2.217073313695048E-2 0
5.424049359216249E-3 0
4.524315550520151E-3 0
2.557837861917044E-2 0
-1.7280941623154824E-2 0
9.155278736869344E-3 0
-2.7237376848511363E-3 0
6.565239416816446E-5 0
2.6433027587393076E-3 0
1.0531247514437703E-2 0
-7.975634153856409E-4 0
-6.227199527106485E-3 0
1.4856641485007673E-3 0
-1.1090914398594301E-3 0
1.796062566928071E-3 0
-5.387462567693303E-3 0
1.1992793491977297E-3 0
-1.6425455496889704E-3 0
1.508661202967152E-3 0
-6.410853048054157E-3 0
-1.4669814208684458E-4 0
1.15916524296299E-2 0
3.481234339847667E-3 0
8.145212119349976E-4 0
-1.6316573881283104E-3 0
5.518568489266893E-3 0
-5.652473504484326E-3 0
3.461747426853407E-3 0
3.560220736236686E-3 0
-6.351309330673921E-3 0
5.475279767070179E-3 0
9.704965308642212E-3 0
-3.2273193283103847E-3 0
-3.345535778539537E-2 0
1.2903352607242074E-2 0
-1.1557002002744838E-3 0
4.329585520483763E-3 0
-2.309890447050034E-2 0
5.866970725975455E-3 0
-2.6317238829692682E-2 0
5.998597546533725E-1 0
-2.535311305867516E-2 0
6.629547622623276E-3 0
-2.3919651657567008E-2 0
4.543188728862542E-3 0
-1.8942487341259155E-3 0
1.069860453937143E-2 0
-3.630379488565483E-2 0
-5.809658921221389E-3 0
5.526440150655152E-3 0
-1.6359651867657424E-2 0
2.3187919114821993E-2 0
5.7608239279365045E-3 0
5.58454976919897E-3 0
2.5734601808359927E-2 0
-1.6280171375199364E-2 0
6.861056505637715E-3 0
-1.8042120974961922E-3 0
5.7863544886505475E-5 0
2.8533676276321666E-3 0
1.0781512784378507E-2 0
-7.899349422242426E-4 0
-6.339289658855799E-3 0
1.345258386227349E-3 0
-1.4614276143413449E-3 0
1.5684743957742474E-3 0
-5.0357271973283E-3 0
1.817634424971174E-3 0
-1.249141779397856E-3 0
1.9792641948881374E-3 0
-5.716302701536857E-3 0
-4.2428016920398803E-4 0
1.1264187891897223E-2 0
3.2273149284675084E-3 0
8.298310231415948E-4 0
-1.7561802480822925E-3 0
5.553985244911758E-3 0
-6.360066288518773E-3 0
3.6234393768696644E-3 0
3.3529507136002435E-3 0
-6.1313969001734045E-3 0
-2.05335172524274E-2 0
5.831175783945715E-3 0
-4.077064298623612E-3 0
-3.4726090174569485E-2 0
1.2639293487215387E-2 0
-5.761105799871047E-4 0
4.807849170937002E-3 0
-2.186303094629769E-2 0
7.400495208199253E-3 0
-2.5353113058675155E-2 0
6.021674505213697E-1 0
-2.379196274728083E-2 0
6.548646689608141E-3 0
-2.4152269671179054E-2 0
8.648672463156669E-4 0
-5.841583889535173E-3 0
1.0664536082750507E-2 0
-3.494041801588083E-2 0
-4.6511691059082675E-3 0
6.730685617390117E-3 0
-1.6582869118735757E-2 0
2.48623627652537E-2 0
6.389473675294633E-3 0
7.244674243840323E-3 0
2.5686283582415204E-2 0
-7.6761237852472014E-3 0
5.205277921012486E-3 0
-1.8885518884561208E-3 0
3.747574912162261E-4 0
3.023331260162132E-3 0
1.069764762278925E-2 0
-7.874553450995062E-4 0
-6.260250766905479E-3 0
1.3114377085559324E-3 0
-1.0941217120093584E-3 0
2.5798162591720328E-3 0
-4.499925507439419E-3 0
2.2365454800222463E-3 0
-6.651979880918456E-4 0
1.6021176814168064E-3 0
-6.459795635082968E-3 0
-7.514225179294798E-4 0
1.1020766269231133E-2 0
2.955676167771539E-3 0
9.438931469104185E-4 0
-2.188290956196781E-3 0
5.6016375139143456E-3 0
-6.7234549096811536E-3 0
4.361407057157601E-3 0
3.191370245982529E-3 0
3.257486776960309E-2 0
-1.5658014087720364E-2 0
6.096520689936703E-3 0
-4.57826039021126E-3 0
-3.3805396051105344E-2 0
1.3532445528734722E-2 0
-5.279821154410349E-4 0
5.634998405555961E-3 0
-2.1632594789889353E-2 0
6.629547622623273E-3 0
-2.379196274728087E-2 0
6.016875144371503E-1 0
-2.6849834316692488E-2 0
7.6154422823779605E-3 0
-2.532300819601115E-2 0
8.74153800352541E-4 0
-1.904726596321528E-3 0
1.2585356765474662E-2 0
-3.342908086534637E-2 0
-3.827326806494636E-3 0
6.762166864960482E-3 0
-1.6568783866117005E-2 0
2.644101419729605E-2 0
4.565729529049896E-3 0
8.089216131551261E-3 0
5.21178919808532E-3 0
-5.817608894862873E-3 0
5.429849194724965E-3 0
-1.8339094111694174E-3 0
3.777513455159684E-4 0
3.1425629201472195E-3 0
1.1421013261709585E-2 0
-6.556441039197893E-4 0
-6.477214672706902E-3 0
1.7568082587929102E-3 0
-6.067086276721102E-4 0
2.7218605691569048E-3 0
-5.084881359185919E-3 0
2.5036590762041676E-3 0
-1.1460167948922565E-3 0
1.3164148938597999E-3 0
-6.607522828449809E-3 0
-9.112344234724839E-4 0
1.1608627917431115E-2 0
2.9938689385829247E-3 0
9.743305827373544E-4 0
-2.535608623339502E-3 0
6.368031755265316E-3 0
-7.070401819950152E-3 0
4.456609563480835E-3 0
8.634871732399277E-3 0
2.5192462953801214E-2 0
-1.5956574003386015E-2 0
6.7865944064222266E-3 0
-3.903267036119751E-3 0
-3.532652848914485E-2 0
1.4112071801515032E-2 0
-1.3083514896105415E-4 0
5.4400722048681925E-3 0
-2.3919651657567008E-2 0
6.548646689608133E-3 0
-2.684983431669248E-2 0
6.126248655644938E-1 0
-2.651745486966108E-2 0
7.6255672289555565E-3 0
-2.4198243746124302E-2 0
4.65171861387128E-3 0
-7.605824614771549E-4 0
1.4758193857518398E-2 0
-3.5198162150692484E-2 0
-4.289091867716004E-3 0
7.371863841103408E-3 0
-1.8289878802432928E-2 0
2.7575168892387782E-2 0
5.896520002592131E-3 0
5.211789198084914E-3 0
3.7052722967442827E-3 0
-5.922952568895166E-3 0
5.318413865867038E-3 0
-1.8261744093523923E-3 0
5.124590657287604E-4 0
3.281122848155981E-3 0
1.1433371512241297E-2 0
-8.104298159669797E-4 0
-6.659000103879907E-3 0
1.3368310431624043E-3 0
-1.1505130772264994E-3 0
2.503659076204181E-3 0
-5.084881359185947E-3 0
2.718908328758134E-3 0
-5.933034684143234E-4 0
1.722811018852705E-3 0
-6.409696470426622E-3 0
-7.751787368598025E-4 0
1.1619461901990693E-2 0
2.8219606231768305E-3 0
8.712913468733742E-4 0
-2.6012620702134826E-3 0
6.3228127702847576E-3 0
-6.57653130093739E-3 0
8.634871732399218E-3 0
6.886023240367925E-3 0
2.4863159395191695E-2 0
-1.6134748502528714E-2 0
6.365925387572512E-3 0
-4.021075279055905E-3 0
-3.5097462060948464E-2 0
1.455566384123346E-2 0
-5.833639134205342E-4 0
4.54318872886254E-3 0
-2.4152269671179064E-2 0
7.615442282377956E-3 0
-2.6517454869661023E-2 0
6.126248655644936E-1 0
-2.6868337936757494E-2 0
6.632665583841845E-3 0
-2.4125353755254812E-2 0
5.813530769110343E-3 0
-6.881941715635121E-4 0
1.4810780212068194E-2 0
-3.599112030555204E-2 0
-3.6266340100580023E-3 0
7.607665802796186E-3 0
-1.7813101302811173E-2 0
2.766071308775879E-2 0
-7.67818853941312E-3 0
3.3782602198094668E-3 0
3.510829317464986E-3 0
-5.80127197848388E-3 0
4.875354887440797E-3 0
-1.682200484519914E-3 0
6.155700959974208E-4 0
3.1588524361476724E-3 0
1.0904903042578906E-2 0
-6.951177871165427E-4 0
-6.478479685868729E-3 0
1.6021127466646628E-3 0
-6.607098952309411E-4 0
2.2336014290968184E-3 0
-4.497439050157334E-3 0
2.574623847500134E-3 0
-1.0814969245075705E-3 0
1.283282788803185E-3 0
-6.2021064827039625E-3 0
-8.975534725040999E-4 0
1.0887767420238446E-2 0
2.733106863865655E-3 0
8.03767000962575E-4 0
-2.371771476730734E-3 0
5.724931660329764E-3 0
3.254516438269477E-2 0
6.881867338898958E-3 0
6.524123013706311E-3 0
2.4371265064914906E-2 0
-1.5099814562302773E-2 0
5.9389806736784186E-3 0
-3.4580269197427523E-3 0
-3.355381569782383E-2 0
1.260453568481425E-2 0
-1.8942487341259172E-3 0
8.648672463156309E-4 0
-2.5323008196011174E-2 0
7.625567228955563E-3 0
-2.6868337936757497E-2 0
6.017363590529251E-1 0
-2.3934498400631016E-2 0
6.945300878109381E-3 0
-2.2200844218688787E-2 0
6.526800951248539E-3 0
-1.7955032004386019E-3 0
1.5166889795856224E-2 0
-3.564748186563217E-2 0
-3.1087345135861807E-3 0
5.559096511032897E-3 0
-1.6483827616365427E-2 0
6.870431879823621E-3 0
-5.8125869832527065E-3 0
3.486766500076288E-3 0
3.219282556833815E-3 0
-5.8617653326549345E-3 0
5.1350434004693E-3 0
-1.45175341184232E-3 0
6.338077531143814E-4 0
3.334783369950391E-3 0
1.1222438345599748E-2 0
-4.2430219087474737E-4 0
-5.697591393784616E-3 0
1.95888523130875E-3 0
-1.235773805863274E-3 0
1.8124244560707673E-3 0
-5.039758451192638E-3 0
1.5824497909516797E-3 0
-1.4812784757268376E-3 0
1.356958741257419E-3 0
-6.315914386868622E-3 0
-8.847191293491382E-4 0
1.0973078586621115E-2 0
2.5910544699979613E-3 0
2.851612515814554E-4 0
-1.9944833486776076E-3 0
-2.039864387552772E-2 0
2.4335540304791507E-2 0
6.861967322235424E-3 0
7.359909133837871E-3 0
2.3750619864748468E-2 0
-1.571496717134832E-2 0
6.169773197074998E-3 0
-4.348191766427032E-3 0
-3.506947375486123E-2 0
1.0698604539371421E-2 0
-5.841583889535174E-3 0
8.741538003525401E-4 0
-2.4198243746124306E-2 0
6.632665583841857E-3 0
-2.3934498400631013E-2 0
6.024548018673908E-1 0
-2.5894720523660802E-2 0
8.306454129786834E-3 0
-2.3234838028507863E-2 0
6.7369777934552615E-3 0
-3.1568968539226858E-3 0
1.59022185192809E-2 0
-3.8397432018481496E-2 0
-1.014840964877154E-3 0
4.837106040659361E-3 0
-2.7456947717411214E-3 0
4.919478447842623E-3 0
-5.851423898715267E-3 0
3.366126271252478E-3 0
3.345971856919321E-3 0
-5.441997474538141E-3 0
5.317178858622556E-3 0
-1.492020803321944E-3 0
7.494126438721071E-4 0
3.4812800617530426E-3 0
1.1633433324331213E-2 0
-2.0305976137993868E-4 0
-6.359470195143318E-3 0
1.4747583855462014E-3 0
-1.6298554884593597E-3 0
1.2131853213008606E-3 0
-5.435100683533306E-3 0
1.8790518299495193E-3 0
-1.2155690882978427E-3 0
1.5843919181020162E-3 0
-6.26185075443231E-3 0
-8.984212412621325E-4 0
1.0802527293213937E-2 0
2.322636912799582E-3 0
2.2298435249808494E-4 0
9.367192044643681E-3 0
-1.4335679455489136E-2 0
2.398122110221107E-2 0
6.395967837815959E-3 0
5.895313117940954E-3 0
2.2740255132076916E-2 0
-1.5908843908822533E-2 0
5.232692723424544E-3 0
-5.691438206172021E-3 0
-3.6303794885654835E-2 0
1.0664536082750515E-2 0
-1.9047265963215321E-3 0
4.6517186138712845E-3 0
-2.4125353755254802E-2 0
6.945300878109383E-3 0
-2.5894720523660823E-2 0
6.007742199918501E-1 0
-2.7747093386092953E-2 0
7.92223806986639E-3 0
-2.583896339232817E-2 0
7.804653945974322E-3 0
-5.4027357103953065E-3 0
1.8057547399505394E-2 0
-3.851785296735071E-2 0
-9.122319136213993E-4 0
5.837358526802465E-6 0
-2.147153984956245E-3 0
4.948935699003517E-3 0
-5.884091375270648E-3 0
3.553174368966042E-3 0
3.4966194100059687E-3 0
-5.350003097237958E-3 0
5.341187412808708E-3 0
-1.4666037022740375E-3 0
8.698319026389685E-4 0
3.5013839602957408E-3 0
1.138748602626976E-2 0
-7.48618394203703E-4 0
-6.572312499695395E-3 0
9.165660433680419E-4 0
-1.7553611822627218E-3 0
1.8237740997180103E-3 0
-5.053569586363712E-3 0
2.3598450987155697E-3 0
-1.2115704090812174E-3 0
1.8826727370416414E-3 0
-6.320374660844048E-3 0
-9.726591881473571E-4 0
1.0827383308070761E-2 0
2.4080787007917694E-3 0
-2.7379354740061273E-3 0
7.041430218339933E-3 0
-1.4401078439942714E-2 0
2.343375011449877E-2 0
5.433211498952295E-3 0
5.269228844365012E-3 0
2.2007233854084048E-2 0
-1.677193553448054E-2 0
4.564601687339528E-3 0
-5.809658921221391E-3 0
-3.4940418015880846E-2 0
1.2585356765474669E-2 0
-7.605824614771554E-4 0
5.813530769110355E-3 0
-2.2200844218688794E-2 0
8.306454129786815E-3 0
-2.7747093386092925E-2 0
5.998371823115551E-1 0
-3.1158229281780955E-2 0
8.600418747112136E-3 0
-2.8171229288149514E-2 0
9.35427859193007E-3 0
-6.487651268785853E-3 0
1.8878550360377742E-2 0
-3.6942491523690585E-2 0
3.2858562671448776E-3 0
-5.000067052858532E-6 0
-2.237896215466769E-3 0
5.08899564770182E-3 0
-5.8549078055947145E-3 0
3.685388018869811E-3 0
3.504506933943094E-3 0
-5.373582429565454E-3 0
5.359353892875411E-3 0
-1.7035922494958698E-3 0
7.24878045813038E-4 0
2.936179973731557E-3 0
1.165345939183959E-2 0
-8.20010211268278E-4 0
-6.182612461819765E-3 0
1.4619215861764905E-3 0
-1.1436581551784683E-3 0
2.399569125621045E-3 0
-4.961381795540835E-3 0
2.768078817487712E-3 0
-1.3657724816469948E-3 0
2.293406514509103E-3 0
-6.68058539227982E-3 0
-6.721464077550185E-4 0
1.084158810371076E-2 0
-4.508432988794205E-2 0
-1.59735149150151E-3 0
6.82896823111599E-3 0
-1.4905745756218357E-2 0
2.2968339731236576E-2 0
4.669333865145252E-3 0
4.906956043229081E-3 0
2.1628028790375484E-2 0
-1.6918112899794262E-2 0
5.526440150655138E-3 0
-4.6511691059082615E-3 0
-3.342908086534639E-2 0
1.4758193857518396E-2 0
-6.881941715635067E-4 0
6.526800951248538E-3 0
-2.3234838028507857E-2 0
7.922238069866357E-3 0
-3.115822928178091E-2 0
6.002606394058024E-1 0
-3.447654450804613E-2 0
1.076339353116948E-2 0
-3.046081036662363E-2 0
1.1363403816749218E-2 0
-5.655474558122535E-3 0
1.7796294707234286E-2 0
1.405149846582396E-2 0
2.3196285779914856E-3 0
1.255481780705196E-4 0
-2.3238906309783224E-3 0
5.224074707525086E-3 0
-5.878206720997456E-3 0
3.736407620245359E-3 0
3.463921315598248E-3 0
-5.489529789122465E-3 0
5.384120752582038E-3 0
-2.0149328277442873E-3 0
7.392002059993249E-4 0
2.9587479914885977E-3 0
1.1654582849085014E-2 0
-6.928644597307954E-4 0
-6.057143970816138E-3 0
1.718796478064623E-3 0
-1.141275210364123E-3 0
2.792966452365419E-3 0
-5.099230349471533E-3 0
3.1540722441334144E-3 0
-1.6765965778405953E-3 0
2.7756134011156343E-3 0
-7.218399978732E-3 0
-5.407068918031198E-4 0
2.1834565837587652E-2 0
-3.293046567924462E-2 0
-1.56092668682377E-3 0
6.551590413946376E-3 0
-1.53689978075788E-2 0
2.2931310017883087E-2 0
4.1525184524455715E-3 0
4.988440452344993E-3 0
2.217073313695048E-2 0
-1.6359651867657428E-2 0
6.730685617390122E-3 0
-3.827326806494627E-3 0
-3.519816215069248E-2 0
1.4810780212068185E-2 0
-1.7955032004386008E-3 0
6.736977793455266E-3 0
-2.5838963392328187E-2 0
8.600418747112173E-3 0
-3.447654450804615E-2 0
6.026841268446347E-1 0
-3.8156691664304555E-2 0
1.4435739475845066E-2 0
-3.332701032882223E-2 0
1.2975821429639009E-2 0
-3.9618773767333155E-3 0
-1.3069862827650594E-3 0
1.0365252891117274E-2 0
2.1700920896610206E-3 0
3.263955496289958E-4 0
-2.4236212387197253E-3 0
5.288829434143575E-3 0
-5.984215578263107E-3 0
3.783029856236166E-3 0
3.441545081232641E-3 0
-5.713339786999608E-3 0
5.515076026980944E-3 0
-2.1824754977196204E-3 0
9.84942399130046E-4 0
2.8113488067841304E-3 0
1.0881953037309931E-2 0
-8.458147951333503E-4 0
-6.2009725839848075E-3 0
1.9267634153942808E-3 0
-1.335388207989535E-3 0
3.169946544562524E-3 0
-5.302652799655088E-3 0
3.4606009078610995E-3 0
-1.9496056968143819E-3 0
2.7843401304736134E-3 0
-7.130576408758735E-3 0
-2.0868228506487445E-3 0
1.620361821901262E-2 0
-3.3253312634229336E-2 0
-1.5323922870851081E-3 0
6.388863478292482E-3 0
-1.586775523016675E-2 0
2.3474947424683406E-2 0
4.069243044790243E-3 0
5.424049359216254E-3 0
2.3187919114821983E-2 0
-1.6582869118735754E-2 0
6.762166864960487E-3 0
-4.289091867715997E-3 0
-3.599112030555203E-2 0
1.516688979585622E-2 0
-3.1568968539226897E-3 0
7.80465394597432E-3 0
-2.8171229288149535E-2 0
1.0763393531169504E-2 0
-3.815669166430453E-2 0
6.07013453393888E-1 0
-4.29597723468392E-2 0
1.928561606320727E-2 0
-3.539608242696321E-2 0
1.1699913644607648E-2 0
-8.790842527967958E-3 0
-1.00627395038084E-3 0
1.0565189927530288E-2 0
1.9098831114691787E-3 0
4.746695445169508E-4 0
-2.472241460391115E-3 0
5.386292360829078E-3 0
-6.197097527409543E-3 0
3.7668307107117842E-3 0
3.491229895041572E-3 0
-6.313628146896085E-3 0
5.531452246648012E-3 0
-2.6362235421406102E-3 0
9.719062656744756E-4 0
2.803294318797822E-3 0
1.0926630511522496E-2 0
-9.278795407587356E-4 0
-6.322634202952679E-3 0
2.3149617686482205E-3 0
-1.6531762206983788E-3 0
3.474508557388815E-3 0
-5.598648059499527E-3 0
3.7717219945786655E-3 0
-1.973315313699317E-3 0
2.4130918505176732E-3 0
1.0726722891134372E-2 0
-2.003797421922195E-3 0
1.6501804703624494E-2 0
-3.368878947795833E-2 0
-1.3451726605815443E-3 0
6.7919254217304395E-3 0
-1.664923026883369E-2 0
2.4488266604948385E-2 0
4.524315550520153E-3 0
5.760823927936525E-3 0
2.4862362765253696E-2 0
-1.6568783866117005E-2 0
7.371863841103399E-3 0
-3.6266340100579997E-3 0
-3.564748186563218E-2 0
1.59022185192809E-2 0
-5.4027357103953256E-3 0
9.354278591930085E-3 0
-3.046081036662364E-2 0
1.4435739475845078E-2 0
-4.295977234683919E-2 0
6.130975805348658E-1 0
-4.904185064856894E-2 0
2.1977288570360073E-2 0
-3.321655796435355E-2 0
2.7287569250573243E-3 0
-6.411496964314954E-3 0
-1.1433422878969202E-3 0
1.0913690624615289E-2 0
1.645337199433303E-3 0
4.214046391609035E-4 0
-2.5807046309799953E-3 0
5.626902445462507E-3 0
-6.4087300482340605E-3 0
3.6244889449437915E-3 0
3.617604410770171E-3 0
-6.975281824131291E-3 0
6.1467211179212075E-3 0
-2.3799514328693787E-3 0
1.0555946215995734E-3 0
2.596886229533526E-3 0
1.0738266985287069E-2 0
-1.003825831181461E-3 0
-6.669917396232139E-3 0
2.8004143378635247E-3 0
-1.9282252968566519E-3 0
3.781879774580422E-3 0
-6.069023301149612E-3 0
4.020018568914182E-3 0
-1.7743358934921166E-3 0
-3.656446829557724E-2 0
8.209998998142082E-3 0
-2.338530174261513E-3 0
1.6905523833682275E-2 0
-3.437921965871434E-2 0
-1.3380757798299643E-3 0
8.117574471359513E-3 0
-1.7470834138712914E-2 0
2.5578378619170426E-2 0
5.584549769198974E-3 0
6.389473675294644E-3 0
2.644101419729605E-2 0
-1.8289878802432928E-2 0
7.607665802796178E-3 0
-3.108734513586183E-3 0
-3.8397432018481496E-2 0
1.8057547399505384E-2 0
-6.487651268785847E-3 0
1.1363403816749216E-2 0
-3.3327010328822224E-2 0
1.928561606320723E-2 0
-4.904185064856887E-2 0
6.208970723882768E-1 0
-5.371791512416953E-2 0
1.8419191235063557E-2 0
-1.5930881877105052E-3 0
1.9927556320770874E-3 0
-6.330718747441107E-3 0
-1.5507667854710778E-3 0
1.1161862292961792E-2 0
1.9322791476632337E-3 0
2.6931167716315774E-4 0
-2.8232291085658863E-3 0
5.729327475134492E-3 0
-6.286009788693281E-3 0
3.4186282121760965E-3 0
4.302796635616287E-3 0
-7.164125221192887E-3 0
6.4165361715274975E-3 0
-2.31315866953754E-3 0
2.1947292053981418E-4 0
2.257363693982864E-3 0
1.0789962866281718E-2 0
-6.687611992200637E-4 0
-7.197993621282691E-3 0
2.805757079175243E-3 0
-1.9594933273137847E-3 0
4.025750914018303E-3 0
-6.132697234603656E-3 0
3.60858151288619E-3 0
1.1695412576232665E-2 0
-2.62135059152479E-2 0
7.711808426046658E-3 0
-1.9984573858868727E-3 0
1.7457468495695475E-2 0
-3.417746578233727E-2 0
-2.79854479801123E-3 0
9.69811618563644E-3 0
-1.728094162315483E-2 0
2.5734601808359923E-2 0
7.244674243840328E-3 0
4.565729529049891E-3 0
2.7575168892387782E-2 0
-1.7813101302811163E-2 0
5.559096511032897E-3 0
-1.014840964877154E-3 0
-3.85178529673507E-2 0
1.8878550360377732E-2 0
-5.655474558122533E-3 0
1.2975821429638996E-2 0
-3.5396082426963224E-2 0
2.1977288570360104E-2 0
-5.371791512416952E-2 0
6.230042803801898E-1 0
-4.6444608021396966E-2 0
3.765241861583917E-3 0
-9.974122299020978E-4 0
1.8672218738782621E-3 0
-6.346228907092172E-3 0
-1.507812335782241E-3 0
1.1034971658496772E-2 0
2.413046952171601E-3 0
2.2658374911042051E-4 0
-2.5929991540651616E-3 0
5.518399605501979E-3 0
-6.128267920897317E-3 0
3.046733957898964E-3 0
4.325533123242029E-3 0
-6.445454860698582E-3 0
5.869568502480708E-3 0
-1.99761484379267E-3 0
1.7987066639593108E-4 0
2.3830360455798327E-3 0
1.0842159874797148E-2 0
-5.287420832566063E-4 0
-7.117107325586102E-3 0
2.4227387664182455E-3 0
-1.7693213868669585E-3 0
3.609986848170657E-3 0
-5.5486642184152096E-3 0
-4.473573626044739E-2 0
6.50325629945226E-3 0
-2.543636789960976E-2 0
6.392446190073377E-3 0
-1.1715655822014538E-3 0
1.6712045155547788E-2 0
-3.360029736058955E-2 0
-3.4656209947949235E-3 0
9.155278736869353E-3 0
-1.6280171375199364E-2 0
2.5686283582415193E-2 0
8.089216131551268E-3 0
5.896520002592132E-3 0
2.7660713087758793E-2 0
-1.6483827616365413E-2 0
4.837106040659372E-3 0
-9.122319136214062E-4 0
-3.6942491523690585E-2 0
1.7796294707234286E-2 0
-3.961877376733324E-3 0
1.1699913644607696E-2 0
-3.321655796435359E-2 0
1.8419191235063557E-2 0
-4.6444608021396966E-2 0
6.152983931503112E-1 0
