%%MatrixMarket matrix array complex general
%
50 50
4.727439027094995E-1 0
-1.6698932196869169E-3 0
4.5593197129860515E-4 0
-2.716835149380788E-3 0
7.761854264448053E-4 0
-4.104846404565644E-3 0
-3.5117253210436637E-3 0
1.1764392833798294E-3 0
4.671116450927621E-3 0
-2.9388283728388883E-3 0
8.208630330899692E-4 0
-2.309211134450212E-3 0
1.0792334160427094E-3 0
1.0792334160425409E-3 0
-2.3115826404020707E-3 0
8.316312669303303E-4 0
-2.965831262705487E-3 0
4.723286613916588E-3 0
1.0878158883909507E-3 0
-3.370895672116024E-3 0
-4.320804881452238E-3 0
1.0871516326669338E-3 0
-3.1270199751275286E-3 0
8.571030622924136E-4 0
-1.9412774241979259E-3 0
-1.6864066054507514E-2 0
-8.97608960058841E-4 0
7.04677896985711E-3 0
-7.57671005833695E-3 0
1.5957422166413358E-2 0
7.5148506918164635E-3 0
-6.055292866117305E-3 0
-1.199254195725107E-3 0
-4.1650509065323605E-3 0
8.529325782319205E-3 0
-9.813160044260763E-3 0
-4.42307136621636E-3 0
-7.094467351948537E-3 0
-7.0944673519490065E-3 0
-4.423557831788388E-3 0
-9.810951163007899E-3 0
8.520931635236272E-3 0
-4.135115686997015E-3 0
-1.2903771577435527E-3 0
-5.824498941141653E-3 0
7.008713133652993E-3 0
1.68927743606381E-2 0
-9.030232288380785E-3 0
8.589507986655897E-3 0
-1.6643750735467844E-3 0
-1.6698932196869219E-3 0
4.855244123436619E-1 0
-1.2442123342452684E-3 0
2.930050719073771E-4 0
-2.0306765750941966E-3 0
5.164338060081366E-4 0
-3.033547028540502E-3 0
-2.61651122194829E-3 0
8.065033193915255E-4 0
3.387925560640272E-3 0
-2.1747166114446884E-3 0
5.03884793811067E-4 0
-1.8583797075277008E-3 0
6.888603826310235E-4 0
6.838960847797057E-4 0
-1.6945602097146839E-3 0
6.02513079676697E-4 0
-2.1672610975818313E-3 0
3.4987293424976326E-3 0
7.905161764465502E-4 0
-2.3729167192722824E-3 0
-3.145415041074609E-3 0
8.990753274698217E-4 0
-2.2717391916289545E-3 0
5.030419125298916E-4 0
-8.976089600595016E-4 0
-9.01163655213844E-3 0
-6.625265279456073E-4 0
5.128029688453269E-3 0
-5.4849371654637135E-3 0
1.1694497555139856E-2 0
5.543251512992589E-3 0
-4.3147879626085125E-3 0
-6.975916962762569E-4 0
-2.7421483181342536E-3 0
6.513633860284052E-3 0
-7.096471621597339E-3 0
-3.537659817423699E-3 0
-5.242601307557276E-3 0
-4.975692438234198E-3 0
-3.30243005121336E-3 0
-7.290123793756717E-3 0
6.1820991175279985E-3 0
-3.110317852270933E-3 0
-9.061522903404401E-4 0
-4.380618566662778E-3 0
5.072838231668935E-3 0
1.2430842317658706E-2 0
-6.651407874176899E-3 0
5.939218858167836E-3 0
4.559319712986119E-4 0
-1.2442123342452924E-3 0
4.854886130583891E-1 0
-1.291552808428226E-3 0
2.3600743503373087E-4 0
-2.0945082189278643E-3 0
4.50591568838468E-4 0
-3.0946481593541355E-3 0
-2.6594581582938532E-3 0
7.818865289968287E-4 0
3.3521651058070357E-3 0
-2.2667200655951203E-3 0
4.8228483267169893E-4 0
-1.7844420164161118E-3 0
6.711354977493647E-4 0
6.50177114552968E-4 0
-1.6822381463380057E-3 0
7.035355843148207E-4 0
-2.116243849963064E-3 0
3.588972639676813E-3 0
8.056429600689057E-4 0
-2.310124054859022E-3 0
-3.159033391050779E-3 0
8.936391596930198E-4 0
-2.2059433016439704E-3 0
7.0467789698581565E-3 0
-6.626604378836558E-4 0
-8.98330158118721E-3 0
-6.256462147185676E-4 0
5.177092316708929E-3 0
-5.414306025390753E-3 0
1.1801137347641339E-2 0
5.697585387046452E-3 0
-4.102997578855851E-3 0
-4.699533229003499E-4 0
-2.491714945561807E-3 0
6.4177768510274786E-3 0
-7.791808850000642E-3 0
-3.5409330530965636E-3 0
-5.020748294067947E-3 0
-4.993177028549325E-3 0
-3.097834788112055E-3 0
-7.320834633292631E-3 0
6.310491125677111E-3 0
-3.277981524127486E-3 0
-7.13207213217753E-4 0
-4.647634822981242E-3 0
5.248062341859201E-3 0
1.214131648004734E-2 0
-6.191203079204914E-3 0
-2.7168351493807885E-3 0
2.9300507190738607E-4 0
-1.2915528084281962E-3 0
4.8542988864657594E-1 0
-1.3595732890889075E-3 0
1.6114751680165883E-4 0
-2.1736860252243753E-3 0
3.680213224228418E-4 0
-3.179820499103538E-3 0
-2.75861787101912E-3 0
7.388325725650767E-4 0
3.290402283882713E-3 0
-2.398377341965241E-3 0
6.199023836120634E-4 0
-1.6950574630805598E-3 0
6.554526419833662E-4 0
8.081727149570308E-4 0
-1.5755625059751094E-3 0
8.269373376672261E-4 0
-2.092751168673292E-3 0
3.6611438450372424E-3 0
8.152611750906283E-4 0
-2.2995983895968716E-3 0
-3.0947591778893906E-3 0
7.265623140520139E-4 0
-7.576710058337881E-3 0
5.127682163417972E-3 0
-6.258906941347033E-4 0
-8.939395137010227E-3 0
-5.695594795729503E-4 0
5.258374953606554E-3 0
-5.288622048824443E-3 0
1.1985500733651658E-2 0
5.936863637223104E-3 0
-3.879862345279532E-3 0
-3.592239125864131E-4 0
-2.749831666340611E-3 0
6.472638022476705E-3 0
-7.727303951052925E-3 0
-3.311344482671793E-3 0
-4.8213327556866905E-3 0
-4.7987167171455215E-3 0
-2.928440658229542E-3 0
-7.366997803375791E-3 0
6.522865190863868E-3 0
-3.4962771525987365E-3 0
-3.565118215232558E-4 0
-5.114930989520555E-3 0
5.8912880418217645E-3 0
1.2056580371290015E-2 0
7.761854264448002E-4 0
-2.0306765750941883E-3 0
2.36007435033738E-4 0
-1.3595732890889104E-3 0
4.853525224709099E-1 0
-1.4450055556678853E-3 0
6.736512477491889E-5 0
-2.278802353461799E-3 0
2.3927424243023757E-4 0
-3.3529279809455057E-3 0
-2.984921057943148E-3 0
4.755693372750111E-4 0
3.387894905346803E-3 0
-2.2312290722977172E-3 0
7.997458832278877E-4 0
-1.3974057442434488E-3 0
8.849023928356425E-4 0
9.422117761395637E-4 0
-1.5380522270896932E-3 0
9.165653163917121E-4 0
-2.1174868210992533E-3 0
3.719505950129895E-3 0
8.185916958240797E-4 0
-2.420694827086953E-3 0
-3.103063952692795E-3 0
1.5957422166413923E-2 0
-5.485297016607981E-3 0
5.177183964356426E-3 0
-5.686320292052679E-4 0
-8.87002049989821E-3 0
-4.7554356680733017E-4 0
5.396840269173619E-3 0
-5.088936684772833E-3 0
1.2255109792189085E-2 0
6.223631546093725E-3 0
-3.6753259704300437E-3 0
-4.557954433655951E-4 0
-3.1677907777304627E-3 0
6.36185910778838E-3 0
-7.459607540079496E-3 0
-3.466192241633219E-3 0
-4.768125623622038E-3 0
-4.774294957763653E-3 0
-2.718472600111496E-3 0
-7.40263392487444E-3 0
6.751147684812485E-3 0
-3.7178325996951697E-3 0
-4.093295648094445E-5 0
-5.391547119275533E-3 0
6.138551936869989E-3 0
-4.104846404565644E-3 0
5.16433806008136E-4 0
-2.0945082189278803E-3 0
1.611475168016424E-4 0
-1.4450055556678957E-3 0
4.852552225641704E-1 0
-1.5579310395967226E-3 0
-6.484534155071828E-5 0
-2.4388389684206137E-3 0
4.717900628822859E-5 0
-3.6242743178968124E-3 0
-3.1484710742400797E-3 0
5.768312179815319E-4 0
3.5626342462901123E-3 0
-1.8677568473044173E-3 0
9.670615577672803E-4 0
-1.3446217952183285E-3 0
9.092078808881457E-4 0
1.0125274544336648E-3 0
-1.5533109242926002E-3 0
1.0070014527894969E-3 0
-2.2268218191092465E-3 0
3.815601964153137E-3 0
7.404273597369883E-4 0
-2.5899395329053404E-3 0
7.514850691816275E-3 0
1.1694687243371797E-2 0
-5.412415710014068E-3 0
5.263115019634583E-3 0
-4.698974215539038E-4 0
-8.753789296271568E-3 0
-3.303279197173484E-4 0
5.582313369908708E-3 0
-4.839530064271182E-3 0
1.2534011538237516E-2 0
6.391798936929711E-3 0
-3.8830066224190365E-3 0
-8.353199486455216E-4 0
-3.280466835434025E-3 0
5.813014958284325E-3 0
-7.669734217816518E-3 0
-3.427357854859821E-3 0
-4.533830872993144E-3 0
-4.631484247409596E-3 0
-2.5190341356488444E-3 0
-7.489652891674413E-3 0
6.903142779600828E-3 0
-3.8602803600395804E-3 0
-2.1445206842146995E-4 0
-5.029422928384769E-3 0
-3.511725321043663E-3 0
-3.0335470285404965E-3 0
4.505915688384719E-4 0
-2.1736860252243736E-3 0
6.736512477493255E-5 0
-1.5579310395967018E-3 0
4.8511349325793635E-1 0
-1.735888212852542E-3 0
-2.770276520461696E-4 0
-2.662665870757395E-3 0
-1.962491096352388E-4 0
-3.733873865131875E-3 0
-3.26390846771424E-3 0
6.85410051930807E-4 0
3.539616632170161E-3 0
-1.830682978543392E-3 0
9.254938212245725E-4 0
-1.2892695951492608E-3 0
9.417640876113528E-4 0
1.0604567553327135E-3 0
-1.610005551801096E-3 0
1.0965232207207948E-3 0
-2.430414463667148E-3 0
3.962778915824233E-3 0
7.144153595150187E-4 0
-6.0552928661173535E-3 0
5.544835594531077E-3 0
1.1806373076715622E-2 0
-5.276978211893944E-3 0
5.414741545628032E-3 0
-3.13170144632246E-4 0
-8.601390103979811E-3 0
-1.8812073600025538E-4 0
5.727834281993137E-3 0
-4.73106457468498E-3 0
1.2665814873038814E-2 0
6.231477377891119E-3 0
-4.3733167591238865E-3 0
-8.282583895175103E-4 0
-3.385098038675357E-3 0
5.607022874927478E-3 0
-7.367733378904142E-3 0
-3.0917793886960916E-3 0
-4.281221031265472E-3 0
-4.600522981071358E-3 0
-2.428679132426756E-3 0
-7.73696933472804E-3 0
7.102823818012248E-3 0
-3.974472226131859E-3 0
-5.770028302409392E-4 0
1.1764392833798314E-3 0
-2.616511221948295E-3 0
-3.0946481593541325E-3 0
3.68021322422852E-4 0
-2.2788023534618E-3 0
-6.484534155071881E-5 0
-1.7358882128525632E-3 0
4.84867330578391E-1 0
-2.052719865464797E-3 0
-6.238206522378777E-4 0
-3.0176494214281774E-3 0
-4.208475863552351E-4 0
-3.95964258590125E-3 0
-3.1591251869122084E-3 0
8.585810423543967E-4 0
3.738360994462458E-3 0
-1.6846261102481312E-3 0
1.0687523882990692E-3 0
-1.2493749776790815E-3 0
9.546978189485769E-4 0
1.0364447259100641E-3 0
-1.6555868870251793E-3 0
1.0996863014189689E-3 0
-2.4669757782576646E-3 0
3.8299145930828977E-3 0
-1.1992541957250398E-3 0
-4.310417884361332E-3 0
5.706549155329819E-3 0
1.2003895199893767E-2 0
-5.054214404689336E-3 0
5.630346354935442E-3 0
-1.4881778064728955E-4 0
-8.516906395029129E-3 0
-1.7510484527231146E-4 0
5.661035521473227E-3 0
-4.773196835173838E-3 0
1.2368677500001068E-2 0
6.352393114921277E-3 0
-4.17194475919026E-3 0
-8.028849991530398E-4 0
-3.1670969302966994E-3 0
6.157507677773554E-3 0
-7.071077384130804E-3 0
-2.9225929254211845E-3 0
-4.343021662174691E-3 0
-4.742661032103632E-3 0
-2.481329272274771E-3 0
-8.037557023822917E-3 0
7.187198263568751E-3 0
-3.7470965039035154E-3 0
4.671116450927622E-3 0
8.065033193915273E-4 0
-2.659458158293853E-3 0
-3.179820499103543E-3 0
2.3927424243024497E-4 0
-2.438838968420612E-3 0
-2.770276520461376E-4 0
-2.0527198654647287E-3 0
4.8441589701318977E-1 0
-2.587863504920623E-3 0
-1.1237929217679122E-3 0
-3.2896286428993377E-3 0
-4.786311882075489E-4 0
-3.787586706899593E-3 0
-2.5807240889896468E-3 0
1.3259058598919272E-3 0
4.087832734560084E-3 0
-1.5464775137294749E-3 0
1.0989561212946392E-3 0
-1.3399033868311421E-3 0
9.477477887517506E-4 0
9.588655372775155E-4 0
-1.6954491332771267E-3 0
8.86637958509034E-4 0
-2.360197290749751E-3 0
-4.1650509065323795E-3 0
-6.833272781916894E-4 0
-4.089938458714285E-3 0
5.948961723150606E-3 0
1.2297133178939337E-2 0
-4.745745180249581E-3 0
5.836454985053204E-3 0
-1.1846793480016707E-4 0
-8.621406761545358E-3 0
-3.507956350748989E-4 0
5.550081981318106E-3 0
-4.879379024367301E-3 0
1.310743516170465E-2 0
6.593102660206755E-3 0
-3.93138479152593E-3 0
-5.988154517216598E-4 0
-2.8342234288388727E-3 0
6.365515072169435E-3 0
-7.2016818657647756E-3 0
-3.079289463797244E-3 0
-4.726433810985483E-3 0
-4.834789299588178E-3 0
-2.6270253197104585E-3 0
-7.901705809728318E-3 0
6.816065365645243E-3 0
-2.9388283728388814E-3 0
3.387925560640267E-3 0
7.818865289968232E-4 0
-2.758617871019122E-3 0
-3.3529279809455044E-3 0
4.717900628823342E-5 0
-2.6626658707574083E-3 0
-6.238206522379091E-4 0
-2.5878635049206115E-3 0
4.837508124425957E-1 0
-3.1652583152799907E-3 0
-1.3647799857604722E-3 0
-3.4460276908140092E-3 0
-2.671267760719625E-4 0
-3.0514477700237645E-3 0
-1.9220620395236949E-3 0
1.6536983129123869E-3 0
4.114652306579368E-3 0
-1.7439726838707557E-3 0
1.0147289902039626E-3 0
-1.4448570168774744E-3 0
9.622330978037072E-4 0
8.112472186344281E-4 0
-1.7683668163690459E-3 0
6.827964580461587E-4 0
8.529325782319267E-3 0
-2.7044560058090594E-3 0
-4.46888619623826E-4 0
-3.895130771245864E-3 0
6.241709543867943E-3 0
1.266656109967121E-2 0
-4.547752165156663E-3 0
5.744648503036537E-3 0
-3.932022234816917E-4 0
-9.013092544015553E-3 0
-6.735887367326817E-4 0
5.472106762858826E-3 0
-5.090346127991755E-3 0
1.3072491225908147E-2 0
6.225481303880027E-3 0
-3.705483879305647E-3 0
-2.4939479841815804E-4 0
-2.8620281562757414E-3 0
6.226007313962505E-3 0
-7.778567900465598E-3 0
-3.2898885706294585E-3 0
-5.041950624988296E-3 0
-4.6421646114521275E-3 0
-3.1073955235647625E-3 0
-7.758584545075428E-3 0
8.208630330899754E-4 0
-2.1747166114446854E-3 0
3.3521651058070444E-3 0
7.388325725650769E-4 0
-2.984921057943153E-3 0
-3.62427431789682E-3 0
-1.9624910963523628E-4 0
-3.0176494214281665E-3 0
-1.1237929217679014E-3 0
-3.1652583152799894E-3 0
4.829346970178597E-1 0
-3.605804293578365E-3 0
-1.4480980462459037E-3 0
-3.5457931938810655E-3 0
4.3290613798398073E-4 0
-2.2199113139925457E-3 0
-1.9047522076571877E-3 0
1.2818347848219521E-3 0
3.817802452102941E-3 0
-1.9510939786530335E-3 0
1.1257032648780672E-3 0
-1.576909550872269E-3 0
8.030476125531577E-4 0
5.85709086223867E-4 0
-1.7730942746297012E-3 0
-9.813160044260907E-3 0
6.603121996122736E-3 0
-2.440211288791862E-3 0
-4.1118052388479766E-4 0
-3.7702078209975276E-3 0
6.530421129291595E-3 0
1.294794734535657E-2 0
-4.7493759511963276E-3 0
5.306727267652493E-3 0
-9.441119981757081E-4 0
-1.0301218732775761E-2 0
-1.2406726517224268E-3 0
6.011582116437902E-3 0
-5.480327594011081E-3 0
1.299222263691026E-2 0
7.521822758372038E-3 0
-3.4818145725613744E-3 0
-2.38553392941294E-4 0
-3.3959578997183543E-3 0
5.626659991361294E-3 0
-8.19671400656538E-3 0
-2.9377686005805613E-3 0
-5.155802832096403E-3 0
-4.808817281812527E-3 0
-3.6521340220204194E-3 0
-2.3092111344502134E-3 0
5.038847938110662E-4 0
-2.266720065595121E-3 0
3.290402283882715E-3 0
4.755693372750088E-4 0
-3.1484710742400866E-3 0
-3.7338738651318776E-3 0
-4.208475863552432E-4 0
-3.2896286428993502E-3 0
-1.3647799857604685E-3 0
-3.605804293578404E-3 0
4.8290041896380026E-1 0
-3.8511275555958915E-3 0
-1.9846191627288733E-3 0
-3.021325947267218E-3 0
4.4133112649044084E-4 0
-3.076472933072464E-3 0
-2.5296204965700934E-3 0
7.700379969632205E-4 0
3.6789349022352306E-3 0
-2.0713507830013925E-3 0
1.0707333721528048E-3 0
-2.0103244802499773E-3 0
9.419085523398323E-4 0
6.071931775821091E-4 0
-4.423071366216169E-3 0
-7.016206146710372E-3 0
6.467916983940277E-3 0
-2.7373582100638626E-3 0
-5.929114309345092E-4 0
-3.8695098832692105E-3 0
6.373035403476881E-3 0
1.2226166172203245E-2 0
-5.23721097634432E-3 0
5.036698854819223E-3 0
-1.962341796881144E-3 0
-9.847119288270631E-3 0
-5.42943942833594E-4 0
5.2346252005597135E-3 0
-4.33762540449216E-3 0
1.3691304281075917E-2 0
6.727802814088153E-3 0
-3.7084185540535485E-3 0
-4.3190700159647017E-4 0
-3.8753400929308185E-3 0
6.288087277338863E-3 0
-7.937032473030238E-3 0
-2.667337863300782E-3 0
-5.582431526624196E-3 0
-5.129879132900509E-3 0
1.0792334160427107E-3 0
-1.858379707527704E-3 0
4.8228483267169427E-4 0
-2.3983773419652393E-3 0
3.3878949053468043E-3 0
5.768312179815336E-4 0
-3.2639084677142426E-3 0
-3.959642585901251E-3 0
-4.786311882075507E-4 0
-3.4460276908140153E-3 0
-1.4480980462459017E-3 0
-3.8511275555958907E-3 0
4.805018428858596E-1 0
-4.671342635419535E-3 0
-1.9824197961577318E-3 0
-3.5557797990249905E-3 0
-2.4191430385298891E-4 0
-3.83711274818058E-3 0
-3.0729620944213824E-3 0
5.45362614729261E-4 0
3.779518069904364E-3 0
-2.541345057348041E-3 0
1.0224890453210738E-3 0
-2.1736514044958396E-3 0
9.009333510347063E-4 0
-7.094467351948761E-3 0
-3.5183637810045697E-3 0
-7.776569441524431E-3 0
6.5213918500355225E-3 0
-3.2164049375331205E-3 0
-8.893375151808096E-4 0
-4.404452033768648E-3 0
6.220901604022343E-3 0
1.2932555544247883E-2 0
-5.3097411857706955E-3 0
5.3765317981970965E-3 0
-1.0329766351914618E-3 0
-1.0377254605378668E-2 0
-1.0867155539843725E-3 0
5.719302774384451E-3 0
-4.820961431840196E-3 0
1.3230287660716832E-2 0
6.88998619575593E-3 0
-4.255041697890801E-3 0
-4.453309460225544E-4 0
-3.7712258931104315E-3 0
7.181557387251403E-3 0
-8.71799680732635E-3 0
-2.727304102095264E-3 0
-5.894173452245307E-3 0
1.079233416042542E-3 0
6.88860382631023E-4 0
-1.7844420164161096E-3 0
6.199023836120639E-4 0
-2.2312290722977172E-3 0
3.5626342462901084E-3 0
6.854100519308106E-4 0
-3.1591251869122054E-3 0
-3.787586706899597E-3 0
-2.671267760719594E-4 0
-3.545793193881065E-3 0
-1.984619162728879E-3 0
-4.671342635419534E-3 0
4.805018428858596E-1 0
-3.8530254529162305E-3 0
-1.439480314490532E-3 0
-3.4677359986724525E-3 0
-4.3621888675844623E-4 0
-4.033225127136571E-3 0
-3.1431947876617026E-3 0
3.8327969609920707E-4 0
3.6810185622435966E-3 0
-2.802112644388926E-3 0
8.862510490678728E-4 0
-2.142693697185071E-3 0
-7.09446735194879E-3 0
-5.261897343976437E-3 0
-3.5561724615727182E-3 0
-7.776057778611796E-3 0
6.410473267591082E-3 0
-3.22644926889875E-3 0
-7.97123114872748E-4 0
-4.0404532482913305E-3 0
6.767982277663511E-3 0
1.3291886283687071E-2 0
-4.845277275770292E-3 0
5.724657892917574E-3 0
-1.086715553984371E-3 0
-1.0377254605378668E-2 0
-1.0302347806499792E-3 0
5.364081932391642E-3 0
-5.277030596388085E-3 0
1.2862195383474702E-2 0
6.360417007913793E-3 0
-4.665374174725691E-3 0
-4.2559674962663863E-4 0
-3.966796042845098E-3 0
7.610654405329254E-3 0
-8.909770896137646E-3 0
-3.182316193835194E-3 0
-2.3115826404020716E-3 0
6.838960847797048E-4 0
6.711354977493687E-4 0
-1.6950574630805587E-3 0
7.997458832278883E-4 0
-1.867756847304415E-3 0
3.5396166321701597E-3 0
8.585810423543971E-4 0
-2.580724088989655E-3 0
-3.051447770023775E-3 0
4.3290613798395124E-4 0
-3.021325947267243E-3 0
-1.982419796157726E-3 0
-3.8530254529162314E-3 0
4.8290346243910887E-1 0
-3.613586204342077E-3 0
-1.347578924204322E-3 0
-3.3215042342979004E-3 0
-3.673082265789868E-4 0
-3.820121794949079E-3 0
-3.0076743826591232E-3 0
2.495863997752449E-4 0
3.645804225860869E-3 0
-2.6719989774357327E-3 0
7.303151907622585E-4 0
-4.423557831788519E-3 0
-5.05595662331801E-3 0
-5.070887802358244E-3 0
-3.323819122230141E-3 0
-7.322494143997285E-3 0
5.799519767548476E-3 0
-3.5266514431014397E-3 0
-6.60373275609902E-4 0
-3.5735554033845215E-3 0
6.6608865579300194E-3 0
1.3713890216876082E-2 0
-4.33761149216174E-3 0
5.229284645276667E-3 0
-5.402166515421888E-4 0
-9.846242851708691E-3 0
-1.9674802099526106E-3 0
5.044412151573904E-3 0
-5.23906467282292E-3 0
1.2199477842780223E-2 0
6.471998494330455E-3 0
-4.115957238762663E-3 0
-1.0991472190237832E-4 0
-3.5967529876003604E-3 0
7.520039840602138E-3 0
-7.925708286348272E-3 0
8.316312669303364E-4 0
-1.6945602097146887E-3 0
6.501771145529613E-4 0
6.554526419833653E-4 0
-1.3974057442434481E-3 0
9.670615577672823E-4 0
-1.8306829785433932E-3 0
3.7383609944624616E-3 0
1.3259058598919303E-3 0
-1.9220620395236988E-3 0
-2.2199113139925483E-3 0
4.4133112649044154E-4 0
-3.5557797990249905E-3 0
-1.4394803144905292E-3 0
-3.6135862043420587E-3 0
4.8294261774275643E-1 0
-3.17480798198796E-3 0
-1.1105888773510113E-3 0
-3.038345492992235E-3 0
-1.6141192144257562E-4 0
-3.685939318069081E-3 0
-2.879520307763886E-3 0
5.316333490785729E-4 0
3.6434546613578005E-3 0
-2.4544610234321883E-3 0
-9.81095116300789E-3 0
-3.391924043626478E-3 0
-5.044683521526412E-3 0
-4.769370771492677E-3 0
-3.371298623971405E-3 0
-7.80836344102036E-3 0
5.324869419433105E-3 0
-3.190919611224383E-3 0
-3.5544909651611046E-4 0
-3.4349485669629065E-3 0
7.521829865401842E-3 0
1.296957196456941E-2 0
-5.456077877042257E-3 0
5.9991983775937235E-3 0
-1.2457494586390074E-3 0
-1.0272904874431003E-2 0
-9.98440095249127E-4 0
5.385167657121728E-3 0
-4.8398585145790814E-3 0
1.3021656090156973E-2 0
6.528283900921001E-3 0
-3.90784349106477E-3 0
-4.1554098763099474E-5 0
-2.9488362413740894E-3 0
7.22015757053005E-3 0
-2.9658312627054806E-3 0
6.025130796767009E-4 0
-1.6822381463380024E-3 0
8.081727149570308E-4 0
8.84902392835642E-4 0
-1.344621795218328E-3 0
9.254938212245729E-4 0
-1.6846261102481353E-3 0
4.087832734560081E-3 0
1.653698312912385E-3 0
-1.9047522076571762E-3 0
-3.076472933072458E-3 0
-2.419143038529926E-4 0
-3.467735998672448E-3 0
-1.3475789242043304E-3 0
-3.1748079819879753E-3 0
4.837496599447474E-1 0
-2.5745023463394283E-3 0
-6.463230806867906E-4 0
-2.63996701260144E-3 0
3.678236977620123E-5 0
-3.3591415757003E-3 0
-2.7388588617016153E-3 0
7.538779272828181E-4 0
3.597517105273255E-3 0
8.520931635236336E-3 0
-7.327801913477884E-3 0
-3.120892627991645E-3 0
-4.783461328577407E-3 0
-4.786232110978281E-3 0
-3.5598903358110587E-3 0
-7.550994905433659E-3 0
6.073899070796452E-3 0
-2.791845133962443E-3 0
-2.494240629678252E-4 0
-3.7523508425979005E-3 0
6.292558274953955E-3 0
1.3011059302267087E-2 0
-5.057802237938324E-3 0
5.47965403681462E-3 0
-7.278917747492027E-4 0
-8.911944145975789E-3 0
-5.405954076779626E-4 0
5.9353211341186774E-3 0
-4.769982889972533E-3 0
1.2882755868101226E-2 0
6.09878221090605E-3 0
-3.90990096328558E-3 0
-3.0625703486273574E-4 0
-2.9248430573074902E-3 0
4.7232866139165905E-3 0
-2.1672610975818347E-3 0
7.035355843148212E-4 0
-1.5755625059751073E-3 0
9.422117761395653E-4 0
9.092078808881457E-4 0
-1.2892695951492662E-3 0
1.0687523882990664E-3 0
-1.546477513729484E-3 0
4.114652306579366E-3 0
1.2818347848219608E-3 0
-2.5296204965700874E-3 0
-3.837112748180579E-3 0
-4.3621888675844374E-4 0
-3.3215042342979095E-3 0
-1.1105888773510117E-3 0
-2.5745023463394387E-3 0
4.843704254089967E-1 0
-1.977352052121722E-3 0
-3.665603813923389E-4 0
-2.3670602998026244E-3 0
2.1333359016108096E-4 0
-3.1776380943483134E-3 0
-2.6770398091501206E-3 0
8.45207361938156E-4 0
-4.1351156869971675E-3 0
6.1678096505794365E-3 0
-7.333905818274371E-3 0
-2.9405156500045613E-3 0
-4.816268193605999E-3 0
-4.62764611258257E-3 0
-3.200490061188706E-3 0
-7.127722114472022E-3 0
6.365565415063713E-3 0
-2.9043827924593313E-3 0
-4.819060999241615E-4 0
-4.066589958221825E-3 0
6.714780300369731E-3 0
1.3037401278860907E-2 0
-4.88089583313758E-3 0
5.628532008583985E-3 0
-4.982690702819015E-4 0
-8.408636065711244E-3 0
-3.9989558580503034E-4 0
6.195298649631395E-3 0
-5.177517896172717E-3 0
1.2760314441992498E-2 0
5.619358771466966E-3 0
-4.01627263232517E-3 0
-7.242386625323932E-4 0
1.0878158883909515E-3 0
3.4987293424976326E-3 0
-2.116243849963068E-3 0
8.269373376672247E-4 0
-1.5380522270897E-3 0
1.0125274544336598E-3 0
9.417640876113561E-4 0
-1.249374977679086E-3 0
1.0989561212946374E-3 0
-1.7439726838707544E-3 0
3.8178024521029466E-3 0
7.700379969632201E-4 0
-3.0729620944213868E-3 0
-4.033225127136568E-3 0
-3.6730822657899434E-4 0
-3.0383454929922378E-3 0
-6.463230806868019E-4 0
-1.9773520521217005E-3 0
4.8473348539838257E-1 0
-1.5553640252745828E-3 0
-2.4030666073372503E-4 0
-2.1832579222003106E-3 0
4.185450218040065E-4 0
-3.260106270560485E-3 0
-2.621329009326196E-3 0
-1.2903771577433035E-3 0
-3.1146520588508763E-3 0
6.301544509860062E-3 0
-7.385425550608454E-3 0
-2.7532663212038147E-3 0
-4.679473158162787E-3 0
-4.320394685281693E-3 0
-2.922581602350692E-3 0
-7.1451189183453084E-3 0
6.309543159841007E-3 0
-3.372073742365595E-3 0
-5.73763578844848E-4 0
-4.3859584957519696E-3 0
6.491333805774956E-3 0
1.234133481826096E-2 0
-4.86374448017486E-3 0
5.851789687514072E-3 0
-4.564663833462561E-4 0
-8.145070366499092E-3 0
-6.260687367581709E-4 0
6.2530946147978895E-3 0
-5.877855585772647E-3 0
1.2921420003060013E-2 0
5.002414913950677E-3 0
-4.209352881536912E-3 0
-3.3708956721160204E-3 0
7.905161764465513E-4 0
3.588972639676813E-3 0
-2.0927511686732957E-3 0
9.165653163917108E-4 0
-1.5533109242926006E-3 0
1.0604567553327135E-3 0
9.546978189485744E-4 0
-1.3399033868311465E-3 0
1.0147289902039639E-3 0
-1.9510939786530352E-3 0
3.6789349022352297E-3 0
5.453626147292608E-4 0
-3.143194787661704E-3 0
-3.8201217949490793E-3 0
-1.6141192144256578E-4 0
-2.63996701260145E-3 0
-3.6656038139233973E-4 0
-1.5553640252745588E-3 0
4.848222104877162E-1 0
-1.1955420025226188E-3 0
-2.650944382711125E-4 0
-2.0225639963129998E-3 0
5.362954603683371E-4 0
-3.3519642086093622E-3 0
-5.824498941141893E-3 0
-9.077800574363613E-4 0
-3.2832379312118954E-3 0
6.511262200361525E-3 0
-7.420449004347984E-3 0
-2.536246858597892E-3 0
-4.600681361895214E-3 0
-4.303732159006342E-3 0
-2.970572123894815E-3 0
-7.595148782455402E-3 0
5.908553580916835E-3 0
-3.7350167210204533E-3 0
-4.7745025994443233E-4 0
-4.63325486080381E-3 0
6.331679736558244E-3 0
1.2739741549307312E-2 0
-4.95335119894667E-3 0
6.086491454427572E-3 0
-6.652290489286002E-4 0
-8.032231624232323E-3 0
-1.0037592033282157E-3 0
6.3804398596712395E-3 0
-6.708155156021907E-3 0
1.3414326107259957E-2 0
4.915874263702982E-3 0
-4.320804881452239E-3 0
-2.3729167192722807E-3 0
8.056429600689072E-4 0
3.6611438450372476E-3 0
-2.1174868210992446E-3 0
1.0070014527895034E-3 0
-1.6100055518010984E-3 0
1.0364447259100667E-3 0
9.477477887517525E-4 0
-1.4448570168774724E-3 0
1.125703264878063E-3 0
-2.071350783001393E-3 0
3.779518069904367E-3 0
3.8327969609920377E-4 0
-3.0076743826591224E-3 0
-3.6859393180690672E-3 0
3.6782369776187136E-5 0
-2.367060299802627E-3 0
-2.4030666073373313E-4 0
-1.1955420025226084E-3 0
4.846890381727471E-1 0
-7.599645384816838E-4 0
-4.295269952941061E-4 0
-1.8265485502985694E-3 0
5.947244602422875E-4 0
7.008713133653118E-3 0
-4.380762073536156E-3 0
-7.150758178677855E-4 0
-3.5010604198908164E-3 0
6.7454121766620315E-3 0
-7.489592362473762E-3 0
-2.411352552682887E-3 0
-4.694617002920217E-3 0
-4.632777498899913E-3 0
-3.1575191324007485E-3 0
-8.0575626459495E-3 0
6.303831566343885E-3 0
-3.8235471167971905E-3 0
-3.7327552593987244E-4 0
-4.131699964262018E-3 0
6.389125440936639E-3 0
1.275040367280721E-2 0
-5.27120483258251E-3 0
6.20509498720817E-3 0
-1.021140985814188E-3 0
-8.112925903031136E-3 0
-1.1842275930631601E-3 0
6.424704058947254E-3 0
-6.97900030826413E-3 0
1.3435958188869009E-2 0
1.0871516326669262E-3 0
-3.1454150410746063E-3 0
-2.3101240548590207E-3 0
8.15261175090636E-4 0
3.7195059501299007E-3 0
-2.226821819109241E-3 0
1.0965232207207996E-3 0
-1.6555868870251776E-3 0
9.588655372775209E-4 0
9.62233097803706E-4 0
-1.57690955087227E-3 0
1.0707333721528078E-3 0
-2.54134505734804E-3 0
3.681018562243595E-3 0
2.4958639977525315E-4 0
-2.8795203077638916E-3 0
-3.3591415757002886E-3 0
2.133335901610642E-4 0
-2.1832579222003006E-3 0
-2.650944382711254E-4 0
-7.599645384816969E-4 0
4.843104592914297E-1 0
-1.9011992280960392E-4 0
-5.661166568699304E-4 0
-2.0106506957763837E-3 0
1.689277436063802E-2 0
5.073155593289603E-3 0
-4.647746700615846E-3 0
-3.5740064801874745E-4 0
-3.7177539951500685E-3 0
6.9087290226839595E-3 0
-7.719224883845264E-3 0
-2.446606915003767E-3 0
-4.792573272394671E-3 0
-5.023496947541127E-3 0
-3.0334240429824456E-3 0
-8.07779821256448E-3 0
7.130171987274374E-3 0
-3.915410642868071E-3 0
3.084840194181442E-5 0
-3.81217617166888E-3 0
6.0802997811341235E-3 0
1.2718149011608436E-2 0
-5.912649966466609E-3 0
6.36278217805856E-3 0
-1.189903552259531E-3 0
-8.456608839069579E-3 0
-1.0595394316573234E-3 0
6.039138314085836E-3 0
-6.750826682579768E-3 0
-3.1270199751275256E-3 0
8.990753274698205E-4 0
-3.159033391050777E-3 0
-2.299598389596872E-3 0
8.185916958240858E-4 0
3.8156019641531406E-3 0
-2.4304144636671534E-3 0
1.099686301418972E-3 0
-1.6954491332771336E-3 0
8.11247218634429E-4 0
8.030476125531645E-4 0
-2.0103244802499786E-3 0
1.0224890453210734E-3 0
-2.802112644388926E-3 0
3.645804225860874E-3 0
5.31633349078567E-4 0
-2.7388588617016053E-3 0
-3.177638094348319E-3 0
4.185450218040161E-4 0
-2.0225639963130193E-3 0
-4.295269952940864E-4 0
-1.9011992280958088E-4 0
4.8367936290569036E-1 0
4.023688497472541E-4 0
-2.6568814843296696E-4 0
-9.030232288380648E-3 0
1.2431223265105833E-2 0
5.248323624374108E-3 0
-5.114958628087837E-3 0
-4.006172693772013E-5 0
-3.855487259878339E-3 0
7.114595190341975E-3 0
-8.0191679796033E-3 0
-2.6151894125539823E-3 0
-4.658146365134427E-3 0
-5.2072292781004965E-3 0
-2.6501277859687297E-3 0
-8.66535514774681E-3 0
7.558012745749712E-3 0
-3.6139642239749093E-3 0
9.877610074362697E-6 0
-3.8939319833919857E-3 0
5.607545508680291E-3 0
1.2902998274206998E-2 0
-6.719886294986332E-3 0
6.419868202717773E-3 0
-1.0603721899898313E-3 0
-8.90649739274843E-3 0
-6.968430445315981E-4 0
6.111123787509059E-3 0
8.571030622924205E-4 0
-2.2717391916289567E-3 0
8.936391596930155E-4 0
-3.0947591778893906E-3 0
-2.420694827086951E-3 0
7.404273597369865E-4 0
3.962778915824234E-3 0
-2.4669757782576677E-3 0
8.866379585090334E-4 0
-1.768366816369045E-3 0
5.857090862238699E-4 0
9.419085523398357E-4 0
-2.17365140449584E-3 0
8.862510490678761E-4 0
-2.671998977435741E-3 0
3.643454661357805E-3 0
7.538779272828093E-4 0
-2.6770398091501063E-3 0
-3.2601062705605E-3 0
5.362954603683516E-4 0
-1.826548550298582E-3 0
-5.661166568699178E-4 0
4.0236884974725466E-4 0
4.833122949716773E-1 0
-3.525589666447165E-4 0
8.58950798665571E-3 0
-6.651294348117625E-3 0
1.2141305286029068E-2 0
5.891057728382817E-3 0
-5.391425881806651E-3 0
-2.1259893233233296E-4 0
-3.9693207966085275E-3 0
7.19615551198469E-3 0
-7.888412184167642E-3 0
-3.083487324363911E-3 0
-4.757201048452525E-3 0
-5.536405283801293E-3 0
-2.715825581601792E-3 0
-8.921249416631109E-3 0
7.47401421097507E-3 0
-3.0004552590561103E-3 0
-3.301584943728223E-4 0
-4.029578114487689E-3 0
4.9934745504891225E-3 0
1.3409154254381389E-2 0
-6.98083187800467E-3 0
6.038996824179967E-3 0
-6.965958391576349E-4 0
-9.38979854236811E-3 0
-1.0225109307165322E-3 0
-1.9412774241979317E-3 0
5.030419125298921E-4 0
-2.205943301643973E-3 0
7.265623140520063E-4 0
-3.1030639526928015E-3 0
-2.5899395329053304E-3 0
7.144153595150194E-4 0
3.829914593082889E-3 0
-2.360197290749749E-3 0
6.827964580461546E-4 0
-1.773094274629702E-3 0
6.071931775821114E-4 0
9.009333510347075E-4 0
-2.142693697185071E-3 0
7.303151907622571E-4 0
-2.4544610234321913E-3 0
3.5975171052732573E-3 0
8.452073619381531E-4 0
-2.6213290093261964E-3 0
-3.351964208609345E-3 0
5.947244602422692E-4 0
-2.010650695776376E-3 0
-2.656881484329481E-4 0
-3.525589666447506E-4 0
4.834429863742878E-1 0
-1.6643750735465931E-3 0
5.939225716677434E-3 0
-6.191340175733204E-3 0
1.205621008242774E-2 0
6.138163973156901E-3 0
-5.0292091189289515E-3 0
-5.753021630697266E-4 0
-3.7424818191043293E-3 0
6.831006307580736E-3 0
-7.719261695875106E-3 0
-3.5580342448039578E-3 0
-5.043601455588075E-3 0
-5.872180382165248E-3 0
-3.2043092639152584E-3 0
-8.01198460262897E-3 0
7.126051613313094E-3 0
-2.9641509308219434E-3 0
-7.392060319472293E-4 0
-4.213929730860188E-3 0
4.914127543365201E-3 0
1.3435793022053099E-2 0
-6.750483421770478E-3 0
6.111529217084879E-3 0
-1.0223952846946118E-3 0
-9.6904620988374E-3 0
-1.686406605450757E-2 0
-8.976089600595062E-4 0
7.046778969858159E-3 0
-7.57671005833788E-3 0
1.5957422166413916E-2 0
7.514850691816273E-3 0
-6.055292866117352E-3 0
-1.1992541957250402E-3 0
-4.165050906532382E-3 0
8.529325782319267E-3 0
-9.813160044260909E-3 0
-4.423071366216163E-3 0
-7.094467351948757E-3 0
-7.094467351948785E-3 0
-4.423557831788512E-3 0
-9.810951163007883E-3 0
8.520931635236333E-3 0
-4.1351156869971675E-3 0
-1.2903771577433075E-3 0
-5.824498941141892E-3 0
7.008713133653117E-3 0
1.6892774360638015E-2 0
-9.03023228838065E-3 0
8.58950798665572E-3 0
-1.6643750735465983E-3 0
6.589672418268031E-1 0
-9.37892824310812E-3 0
-7.122022298809465E-3 0
1.7532988120103787E-2 0
-1.1479454632416876E-2 0
2.1892366640820057E-2 0
1.8140418815313173E-2 0
-5.900581823888123E-3 0
-2.9789402641634186E-2 0
2.3125942720304504E-2 0
-1.0177372978977488E-2 0
1.5612067343061472E-2 0
-7.936595964862285E-3 0
-7.936595964862032E-3 0
1.563057515815243E-2 0
-1.026141092145433E-2 0
2.333615633810559E-2 0
-3.0193024303021267E-2 0
-5.222921495907193E-3 0
1.7082633136458185E-2 0
2.3471462279745132E-2 0
-1.3676807898131714E-2 0
2.021673237870031E-2 0
-9.50007859708145E-3 0
-8.883148962477312E-3 0
-8.976089600588359E-4 0
-9.011636552138423E-3 0
-6.626604378836576E-4 0
5.127682163417963E-3 0
-5.485297016607987E-3 0
1.1694687243371811E-2 0
5.54483559453107E-3 0
-4.31041788436133E-3 0
-6.833272781916871E-4 0
-2.7044560058090646E-3 0
6.603121996122735E-3 0
-7.016206146710371E-3 0
-3.5183637810045692E-3 0
-5.261897343976437E-3 0
-5.055956623318011E-3 0
-3.391924043626472E-3 0
-7.327801913477885E-3 0
6.167809650579432E-3 0
-3.1146520588508785E-3 0
-9.077800574363603E-4 0
-4.380762073536156E-3 0
5.0731555932896025E-3 0
1.2431223265105831E-2 0
-6.651294348117619E-3 0
5.9392257166774294E-3 0
-9.378928243108138E-3 0
5.843899215408597E-1 0
-6.717986734343812E-3 0
-5.038580805176543E-3 0
1.2981590320443274E-2 0
-8.18047474832646E-3 0
1.6081893509873026E-2 0
1.3456670308279437E-2 0
-4.055264393380592E-3 0
-2.1631602221759937E-2 0
1.6953530118374544E-2 0
-7.1709394104495835E-3 0
1.2218292709293366E-2 0
-5.073362708065903E-3 0
-4.945623347176517E-3 0
1.1445797880621047E-2 0
-7.529992225633047E-3 0
1.708914497785233E-2 0
-2.2350714092382595E-2 0
-3.6113996786532885E-3 0
1.1920920231499257E-2 0
1.7368856287208165E-2 0
-1.0832297842590263E-2 0
1.5145880995376818E-2 0
-6.642926825067653E-3 0
7.046778969857102E-3 0
-6.625265279455962E-4 0
-8.983301581187186E-3 0
-6.258906941347327E-4 0
5.177183964356444E-3 0
-5.412415710014082E-3 0
1.1806373076715629E-2 0
5.706549155329821E-3 0
-4.089938458714278E-3 0
-4.468886196238334E-4 0
-2.440211288791859E-3 0
6.467916983940275E-3 0
-7.776569441524431E-3 0
-3.5561724615727182E-3 0
-5.070887802358239E-3 0
-5.044683521526405E-3 0
-3.120892627991648E-3 0
-7.333905818274369E-3 0
6.301544509860063E-3 0
-3.283237931211898E-3 0
-7.150758178677821E-4 0
-4.64774670061585E-3 0
5.2483236243741046E-3 0
1.2141305286029072E-2 0
-6.191340175733207E-3 0
-7.12202229880946E-3 0
-6.717986734343854E-3 0
5.845274719803273E-1 0
-6.541542042890883E-3 0
-4.829516640698378E-3 0
1.3217484467221348E-2 0
-7.926873674821498E-3 0
1.633785770405568E-2 0
1.3671228626285076E-2 0
-3.906518400660061E-3 0
-2.138924950597165E-2 0
1.7297551908956543E-2 0
-7.320712704998677E-3 0
1.2197198056800059E-2 0
-4.9308904390959534E-3 0
-5.091044716729887E-3 0
1.1356221761603068E-2 0
-8.045441213973681E-3 0
1.70101040065457E-2 0
-2.2815798884920437E-2 0
-3.5151006840032435E-3 0
1.1556058753471926E-2 0
1.7569121224506396E-2 0
-1.0722334846147711E-2 0
1.446668370593575E-2 0
-7.576710058336946E-3 0
5.128029688453249E-3 0
-6.256462147185921E-4 0
-8.939395137010184E-3 0
-5.686320292052821E-4 0
5.263115019634565E-3 0
-5.27697821189393E-3 0
1.2003895199893755E-2 0
5.948961723150607E-3 0
-3.895130771245871E-3 0
-4.111805238848007E-4 0
-2.737358210063862E-3 0
6.52139185003552E-3 0
-7.7760577786117925E-3 0
-3.323819122230136E-3 0
-4.769370771492676E-3 0
-4.783461328577409E-3 0
-2.9405156500045553E-3 0
-7.385425550608456E-3 0
6.511262200361528E-3 0
-3.5010604198908155E-3 0
-3.5740064801874344E-4 0
-5.114958628087845E-3 0
5.891057728382815E-3 0
1.2056210082427738E-2 0
1.7532988120103773E-2 0
-5.038580805176535E-3 0
-6.5415420428908515E-3 0
5.847393493066598E-1 0
-6.298894752005395E-3 0
-4.557133379670188E-3 0
1.3523069319858251E-2 0
-7.5791094025794686E-3 0
1.6731954564012722E-2 0
1.4122729949691873E-2 0
-3.813416354871933E-3 0
-2.141483108226543E-2 0
1.8215691009926704E-2 0
-7.677224953330793E-3 0
1.153380728804676E-2 0
-4.922573199539383E-3 0
-5.78017892291679E-3 0
1.1032547146725491E-2 0
-8.612874255519919E-3 0
1.7102915839240458E-2 0
-2.322489751392852E-2 0
-3.435658706301472E-3 0
1.1488493356704108E-2 0
1.7057293813052366E-2 0
-9.662382634269105E-3 0
1.5957422166413365E-2 0
-5.484937165463713E-3 0
5.177092316708937E-3 0
-5.695594795729586E-4 0
-8.87002049989822E-3 0
-4.698974215539068E-4 0
5.414741545628045E-3 0
-5.054214404689344E-3 0
1.2297133178939327E-2 0
6.241709543867938E-3 0
-3.7702078209975397E-3 0
-5.929114309345139E-4 0
-3.216404937533116E-3 0
6.410473267591074E-3 0
-7.322494143997286E-3 0
-3.371298623971405E-3 0
-4.786232110978274E-3 0
-4.816268193605994E-3 0
-2.7532663212038156E-3 0
-7.4204490043479855E-3 0
6.745412176662043E-3 0
-3.7177539951500594E-3 0
-4.00617269377205E-5 0
-5.3914258818066555E-3 0
6.138163973156899E-3 0
-1.1479454632416872E-2 0
1.2981590320443277E-2 0
-4.829516640698406E-3 0
-6.298894752005382E-3 0
5.850143559302211E-1 0
-5.985986912093728E-3 0
-4.191195628350056E-3 0
1.3962363637829867E-2 0
-7.026619663280042E-3 0
1.741350484150735E-2 0
1.4871420389392456E-2 0
-3.008060841724103E-3 0
-2.231132269576072E-2 0
1.7750830049110173E-2 0
-8.048907982793495E-3 0
1.0172915647291206E-2 0
-5.842473904551617E-3 0
-6.338842964565607E-3 0
1.1087607397808246E-2 0
-9.085669289266657E-3 0
1.7448094614000983E-2 0
-2.3661194984857154E-2 0
-3.3478602715329526E-3 0
1.2197066462670533E-2 0
1.6766754725141483E-2 0
7.514850691816468E-3 0
1.1694497555139858E-2 0
-5.414306025390763E-3 0
5.258374953606552E-3 0
-4.75543566807313E-4 0
-8.75378929627154E-3 0
-3.1317014463225294E-4 0
5.630346354935438E-3 0
-4.745745180249596E-3 0
1.266656109967121E-2 0
6.5304211292915824E-3 0
-3.869509883269214E-3 0
-8.893375151808112E-4 0
-3.226449268898751E-3 0
5.799519767548477E-3 0
-7.808363441020356E-3 0
-3.559890335811051E-3 0
-4.627646112582567E-3 0
-4.6794731581627945E-3 0
-2.536246858597892E-3 0
-7.489592362473758E-3 0
6.90872902268397E-3 0
-3.855487259878343E-3 0
-2.12598932332328E-4 0
-5.029209118928957E-3 0
2.1892366640820064E-2 0
-8.180474748326463E-3 0
1.3217484467221364E-2 0
-4.557133379670211E-3 0
-5.985986912093721E-3 0
5.853840614581121E-1 0
-5.530638934527813E-3 0
-3.6299086800201455E-3 0
1.4640857720463703E-2 0
-6.29793588304534E-3 0
1.8284022835357114E-2 0
1.5224249595585528E-2 0
-3.4986908555199973E-3 0
-2.2729371223655478E-2 0
1.5979931666719255E-2 0
-8.728894119466202E-3 0
9.893773830088952E-3 0
-5.835584075021407E-3 0
-6.6588589437065835E-3 0
1.1361460440942328E-2 0
-9.68520471104078E-3 0
1.825406952600105E-2 0
-2.4448897660281757E-2 0
-2.8650521038753756E-3 0
1.3168006573292462E-2 0
-6.0552928661173015E-3 0
5.543251512992591E-3 0
1.1801137347641337E-2 0
-5.288622048824453E-3 0
5.3968402691736035E-3 0
-3.3032791971734763E-4 0
-8.601390103979796E-3 0
-1.4881778064728998E-4 0
5.836454985053201E-3 0
-4.547752165156665E-3 0
1.2947947345356559E-2 0
6.373035403476862E-3 0
-4.40445203376865E-3 0
-7.971231148727475E-4 0
-3.5266514431014258E-3 0
5.32486941943311E-3 0
-7.550994905433663E-3 0
-3.2004900611887033E-3 0
-4.320394685281701E-3 0
-4.600681361895217E-3 0
-2.411352552682883E-3 0
-7.719224883845276E-3 0
7.114595190341982E-3 0
-3.96932079660853E-3 0
-5.753021630697292E-4 0
1.8140418815313194E-2 0
1.608189350987303E-2 0
-7.92687367482151E-3 0
1.352306931985825E-2 0
-4.191195628350054E-3 0
-5.530638934527849E-3 0
5.859847657774981E-1 0
-4.744955319867641E-3 0
-2.671952566379752E-3 0
1.5640695607920373E-2 0
-5.281676829517564E-3 0
1.8682160459227673E-2 0
1.600055812721222E-2 0
-3.455600878558247E-3 0
-2.2050924793935098E-2 0
1.5541824659553052E-2 0
-8.79726778294031E-3 0
9.574751558429625E-3 0
-5.912360976301469E-3 0
-6.91393734470589E-3 0
1.1775194402590266E-2 0
-1.0397961940480595E-2 0
1.954486878617268E-2 0
-2.547052448795699E-2 0
-3.028218456712813E-3 0
-1.1992541957251113E-3 0
-4.314787962608517E-3 0
5.69758538704645E-3 0
1.1985500733651669E-2 0
-5.088936684772814E-3 0
5.582313369908719E-3 0
-1.8812073600025646E-4 0
-8.516906395029156E-3 0
-1.1846793480016034E-4 0
5.7446485030365245E-3 0
-4.749375951196326E-3 0
1.2226166172203236E-2 0
6.220901604022338E-3 0
-4.040453248291326E-3 0
-6.603732756098991E-4 0
-3.19091961122439E-3 0
6.073899070796457E-3 0
-7.127722114472021E-3 0
-2.9225816023506906E-3 0
-4.30373215900634E-3 0
-4.69461700292022E-3 0
-2.4466069150037737E-3 0
-8.019167979603304E-3 0
7.196155511984689E-3 0
-3.742481819104324E-3 0
-5.9005818238881255E-3 0
1.3456670308279435E-2 0
1.633785770405568E-2 0
-7.57910940257947E-3 0
1.3962363637829855E-2 0
-3.629908680020182E-3 0
-4.744955319867682E-3 0
5.87101071301724E-1 0
-3.282748736628658E-3 0
-1.0606515320770416E-3 0
1.7472727377643472E-2 0
-4.120199997873654E-3 0
2.0002778463777564E-2 0
1.5964245331801227E-2 0
-4.491091740699544E-3 0
-2.3561805323643405E-2 0
1.471722082556612E-2 0
-9.48055572429813E-3 0
9.462944847133083E-3 0
-6.001132058348378E-3 0
-6.8555069207411065E-3 0
1.2004454964331753E-2 0
-1.07088127883076E-2 0
1.9670553276158312E-2 0
-2.4610767977778576E-2 0
-4.165050906532361E-3 0
-6.97591696276264E-4 0
-4.102997578855859E-3 0
5.9368636372230995E-3 0
1.2255109792189075E-2 0
-4.839530064271179E-3 0
5.727834281993145E-3 0
-1.7510484527231474E-4 0
-8.621406761545365E-3 0
-3.93202223481693E-4 0
5.306727267652491E-3 0
-5.2372109763443074E-3 0
1.293255554424788E-2 0
6.767982277663512E-3 0
-3.573555403384527E-3 0
-3.5544909651611376E-4 0
-2.7918451339624495E-3 0
6.365565415063705E-3 0
-7.145118918345314E-3 0
-2.9705721238948127E-3 0
-4.632777498899915E-3 0
-4.792573272394679E-3 0
-2.6151894125539853E-3 0
-7.88841218416765E-3 0
6.831006307580737E-3 0
-2.978940264163418E-2 0
-4.055264393380588E-3 0
1.3671228626285085E-2 0
1.673195456401273E-2 0
-7.026619663280041E-3 0
1.464085772046372E-2 0
-2.6719525663797153E-3 0
-3.282748736628626E-3 0
5.891021219979543E-1 0
-1.0567901665764277E-3 0
8.494567146951165E-4 0
1.8049891533698147E-2 0
-4.523587786724056E-3 0
1.9468658969045587E-2 0
1.3331494493158425E-2 0
-6.332812988804157E-3 0
-2.4781774012994633E-2 0
1.4270645177095595E-2 0
-9.713407389950931E-3 0
9.958614800591304E-3 0
-6.1202758734733385E-3 0
-6.493726556168326E-3 0
1.2035002024720286E-2 0
-9.584020019390072E-3 0
1.866132267362017E-2 0
8.529325782319214E-3 0
-2.742148318134246E-3 0
-4.6995332290035067E-4 0
-3.879862345279533E-3 0
6.223631546093731E-3 0
1.2534011538237516E-2 0
-4.731064574684983E-3 0
5.661035521473227E-3 0
-3.5079563507490975E-4 0
-9.013092544015553E-3 0
-9.44111998175702E-4 0
5.036698854819218E-3 0
-5.309741185770692E-3 0
1.3291886283687075E-2 0
6.6608865579300255E-3 0
-3.434948566962923E-3 0
-2.4942406296784073E-4 0
-2.9043827924593213E-3 0
6.3095431598410015E-3 0
-7.5951487824553994E-3 0
-3.157519132400734E-3 0
-5.023496947541123E-3 0
-4.658146365134424E-3 0
-3.0834873243639135E-3 0
-7.719261695875104E-3 0
2.3125942720304493E-2 0
-2.163160222175993E-2 0
-3.906518400660067E-3 0
1.412272994969187E-2 0
1.7413504841507346E-2 0
-6.2979358830453505E-3 0
1.5640695607920366E-2 0
-1.0606515320770538E-3 0
-1.0567901665764629E-3 0
5.916638053142542E-1 0
6.742536012580846E-4 0
1.1586213605560799E-3 0
1.877162389067609E-2 0
-5.378148665424253E-3 0
1.6550961284889115E-2 0
1.0915157053881882E-2 0
-7.56386841713627E-3 0
-2.4991986821406683E-2 0
1.5181013088397215E-2 0
-9.492925438106968E-3 0
1.0679826819842772E-2 0
-6.460397728152663E-3 0
-5.774697269745883E-3 0
1.1991828057068601E-2 0
-8.28827297225966E-3 0
-9.813160044260763E-3 0
6.51363386028404E-3 0
-2.491714945561807E-3 0
-3.592239125864101E-4 0
-3.6753259704300433E-3 0
6.391798936929723E-3 0
1.2665814873038826E-2 0
-4.773196835173833E-3 0
5.550081981318097E-3 0
-6.7358873673268E-4 0
-1.0301218732775777E-2 0
-1.962341796881131E-3 0
5.376531798197099E-3 0
-4.845277275770295E-3 0
1.3713890216876096E-2 0
7.521829865401842E-3 0
-3.7523508425978984E-3 0
-4.819060999241619E-4 0
-3.372073742365599E-3 0
5.908553580916829E-3 0
-8.057562645949503E-3 0
-3.033424042982447E-3 0
-5.207229278100501E-3 0
-4.757201048452522E-3 0
-3.5580342448039617E-3 0
-1.0177372978977488E-2 0
1.695353011837454E-2 0
-2.1389249505971635E-2 0
-3.813416354871931E-3 0
1.4871420389392452E-2 0
1.828402283535712E-2 0
-5.281676829517555E-3 0
1.7472727377643493E-2 0
8.49456714695121E-4 0
6.742536012580978E-4 0
5.954290944159338E-1 0
3.4911371630988526E-3 0
1.641579114562253E-3 0
1.9334984657214734E-2 0
-8.680310548079358E-3 0
1.214426371507934E-2 0
1.0778484624932319E-2 0
-5.985791941290483E-3 0
-2.41858421038637E-2 0
1.648590710954006E-2 0
-9.973905172489791E-3 0
1.1585988299635058E-2 0
-6.105833426234938E-3 0
-4.5351792981256495E-3 0
1.1930733624807191E-2 0
-4.423071366216362E-3 0
-7.096471621597339E-3 0
6.417776851027473E-3 0
-2.749831666340606E-3 0
-4.5579544336558984E-4 0
-3.8830066224190365E-3 0
6.231477377891116E-3 0
1.236867750000106E-2 0
-4.8793790243672865E-3 0
5.472106762858821E-3 0
-1.240672651722409E-3 0
-9.847119288270643E-3 0
-1.032976635191464E-3 0
5.724657892917578E-3 0
-4.337611492161741E-3 0
1.2969571964569411E-2 0
6.292558274953952E-3 0
-4.066589958221831E-3 0
-5.737635788448519E-4 0
-3.735016721020456E-3 0
6.303831566343882E-3 0
-8.077798212564477E-3 0
-2.6501277859687284E-3 0
-5.536405283801294E-3 0
-5.043601455588071E-3 0
1.5612067343061479E-2 0
-7.170939410449579E-3 0
1.7297551908956533E-2 0
-2.1414831082265415E-2 0
-3.008060841724095E-3 0
1.5224249595585517E-2 0
1.8682160459227673E-2 0
-4.12019999787367E-3 0
1.8049891533698133E-2 0
1.158621360556118E-3 0
3.4911371630988075E-3 0
5.958545748040543E-1 0
3.246960297349614E-3 0
4.110639237695371E-3 0
1.6120349522775926E-2 0
-8.746453772609476E-3 0
1.674745459594682E-2 0
1.2931046303243378E-2 0
-3.7994600450351307E-3 0
-2.3135132765353335E-2 0
1.755795857863648E-2 0
-1.013907136483181E-2 0
1.3945565191013552E-2 0
-6.981835886560817E-3 0
-4.357411969021502E-3 0
-7.094467351948537E-3 0
-3.5376598174236924E-3 0
-7.791808850000634E-3 0
6.472638022476716E-3 0
-3.167790777730457E-3 0
-8.353199486455166E-4 0
-4.373316759123886E-3 0
6.352393114921279E-3 0
1.3107435161704654E-2 0
-5.090346127991755E-3 0
6.011582116437902E-3 0
-5.429439428336E-4 0
-1.0377254605378704E-2 0
-1.0867155539844439E-3 0
5.229284645276673E-3 0
-5.4560778770422575E-3 0
1.3011059302267087E-2 0
6.71478030036973E-3 0
-4.385958495751974E-3 0
-4.774502599444289E-4 0
-3.8235471167971987E-3 0
7.130171987274367E-3 0
-8.665355147746827E-3 0
-2.7158255816018034E-3 0
-5.872180382165252E-3 0
-7.936595964862281E-3 0
1.2218292709293366E-2 0
-7.3207127049986775E-3 0
1.821569100992671E-2 0
-2.2311322695760735E-2 0
-3.498690855519993E-3 0
1.6000558127212215E-2 0
2.0002778463777578E-2 0
-4.523587786724055E-3 0
1.8771623890676083E-2 0
1.6415791145622527E-3 0
3.2469602973496194E-3 0
6.080845235453878E-1 0
6.2739085351528065E-3 0
4.093006821028565E-3 0
1.9415047701408717E-2 0
-5.580066237622594E-3 0
1.986428384483284E-2 0
1.5278700263099172E-2 0
-2.346505803541537E-3 0
-2.4440305024046864E-2 0
2.019262385592037E-2 0
-1.0833029373331837E-2 0
1.5227153297295218E-2 0
-6.701985252059288E-3 0
-7.094467351949006E-3 0
-5.24260130755728E-3 0
-3.5409330530965654E-3 0
-7.727303951052939E-3 0
6.361859107788375E-3 0
-3.28046683543403E-3 0
-8.282583895175151E-4 0
-4.171944759190258E-3 0
6.593102660206756E-3 0
1.3072491225908145E-2 0
-5.480327594011083E-3 0
5.234625200559718E-3 0
-1.0867155539844352E-3 0
-1.0377254605378704E-2 0
-5.402166515421957E-4 0
5.999198377593723E-3 0
-5.057802237938326E-3 0
1.3037401278860904E-2 0
6.49133380577496E-3 0
-4.633254860803814E-3 0
-3.7327552593986957E-4 0
-3.915410642868063E-3 0
7.558012745749724E-3 0
-8.921249416631106E-3 0
-3.2043092639152553E-3 0
-7.936595964862026E-3 0
-5.073362708065904E-3 0
1.2197198056800066E-2 0
-7.677224953330791E-3 0
1.7750830049110183E-2 0
-2.2729371223655485E-2 0
-3.455600878558241E-3 0
1.596424533180123E-2 0
1.946865896904559E-2 0
-5.378148665424249E-3 0
1.9334984657214734E-2 0
4.110639237695379E-3 0
6.273908535152812E-3 0
6.080845235453878E-1 0
3.262162950545674E-3 0
1.572548832570746E-3 0
1.894544825237906E-2 0
-4.86288450060489E-3 0
2.0590196687758196E-2 0
1.5040603198458955E-2 0
-1.966773920107996E-3 0
-2.4623449604841523E-2 0
2.1420113441207228E-2 0
-1.056494185678819E-2 0
1.4367435494254246E-2 0
-4.423557831788386E-3 0
-4.975692438234203E-3 0
-5.020748294067954E-3 0
-3.3113444826717905E-3 0
-7.4596075400795E-3 0
5.813014958284322E-3 0
-3.3850980386753637E-3 0
-8.028849991530428E-4 0
-3.931384791525936E-3 0
6.225481303880024E-3 0
1.2992222636910277E-2 0
-4.337625404492161E-3 0
5.719302774384453E-3 0
-1.0302347806499807E-3 0
-9.84624285170868E-3 0
-1.2457494586390165E-3 0
5.479654036814628E-3 0
-4.8808958331375794E-3 0
1.2341334818260956E-2 0
6.331679736558252E-3 0
-4.131699964262011E-3 0
3.0848401941819685E-5 0
-3.6139642239749E-3 0
7.474014210975069E-3 0
-8.01198460262897E-3 0
1.5630575158152443E-2 0
-4.9456233471765155E-3 0
-4.930890439095945E-3 0
1.1533807288046762E-2 0
-8.048907982793499E-3 0
1.597993166671926E-2 0
-2.2050924793935094E-2 0
-4.491091740699547E-3 0
1.333149449315841E-2 0
1.655096128488911E-2 0
-8.68031054807938E-3 0
1.61203495227759E-2 0
4.093006821028561E-3 0
3.2621629505456703E-3 0
5.958309889790854E-1 0
3.551354747907702E-3 0
1.025447292049981E-3 0
1.8297695428560582E-2 0
-4.538621718633302E-3 0
1.935845413104158E-2 0
1.4124717789920372E-2 0
-1.2618417678001504E-3 0
-2.4141088208917673E-2 0
2.04046395527501E-2 0
-9.087362436889896E-3 0
-9.810951163007902E-3 0
-3.3024300512133633E-3 0
-4.993177028549326E-3 0
-4.821332755686691E-3 0
-3.4661922416332103E-3 0
-7.6697342178165175E-3 0
5.607022874927479E-3 0
-3.1670969302967015E-3 0
-5.988154517216578E-4 0
-3.7054838793056442E-3 0
7.521822758372035E-3 0
1.369130428107592E-2 0
-4.820961431840196E-3 0
5.364081932391643E-3 0
-1.9674802099525915E-3 0
-1.0272904874431034E-2 0
-7.278917747492181E-4 0
5.628532008583983E-3 0
-4.863744480174859E-3 0
1.2739741549307317E-2 0
6.389125440936645E-3 0
-3.8121761716688814E-3 0
9.877610074362055E-6 0
-3.000455259056106E-3 0
7.126051613313091E-3 0
-1.0261410921454332E-2 0
1.1445797880621042E-2 0
-5.091044716729887E-3 0
-4.922573199539388E-3 0
1.0172915647291206E-2 0
-8.728894119466202E-3 0
1.5541824659553049E-2 0
-2.35618053236434E-2 0
-6.332812988804144E-3 0
1.0915157053881915E-2 0
1.2144263715079357E-2 0
-8.746453772609453E-3 0
1.9415047701408717E-2 0
1.5725488325707448E-3 0
3.551354747907696E-3 0
5.953685234542396E-1 0
7.462225780739125E-4 0
7.48513286219881E-4 0
1.76370425037497E-2 0
-5.5691577598255965E-3 0
1.8800087591723687E-2 0
1.3995693588672095E-2 0
-2.1940836763732086E-3 0
-2.355977039037663E-2 0
1.9055772005072875E-2 0
8.52093163523628E-3 0
-7.290123793756719E-3 0
-3.0978347881120568E-3 0
-4.798716717145522E-3 0
-4.768125623622035E-3 0
-3.4273578548598177E-3 0
-7.36773337890415E-3 0
6.157507677773551E-3 0
-2.834223428838865E-3 0
-2.493947984181707E-4 0
-3.481814572561376E-3 0
6.727802814088148E-3 0
1.3230287660716836E-2 0
-5.277030596388084E-3 0
5.044412151573915E-3 0
-9.984400952491254E-4 0
-8.911944145975802E-3 0
-4.982690702819046E-4 0
5.851789687514077E-3 0
-4.953351198946669E-3 0
1.275040367280721E-2 0
6.080299781134122E-3 0
-3.8939319833919844E-3 0
-3.301584943728159E-4 0
-2.964150930821952E-3 0
2.3336156338105585E-2 0
-7.5299922256330505E-3 0
1.135622176160307E-2 0
-5.78017892291677E-3 0
-5.842473904551612E-3 0
9.89377383008895E-3 0
-8.79726778294031E-3 0
1.4717220825566119E-2 0
-2.478177401299465E-2 0
-7.563868417136247E-3 0
1.0778484624932343E-2 0
1.6747454595946835E-2 0
-5.5800662376225985E-3 0
1.8945448252379066E-2 0
1.0254472920499657E-3 0
7.462225780738808E-4 0
5.91679006338016E-1 0
-1.169451636805095E-3 0
-8.791982003448366E-4 0
1.5470596990893735E-2 0
-6.253042978044664E-3 0
1.755736504089271E-2 0
1.3779160409442473E-2 0
-3.458547514786552E-3 0
-2.3116770148672236E-2 0
-4.135115686997016E-3 0
6.182099117527994E-3 0
-7.32083463329263E-3 0
-2.9284406582295404E-3 0
-4.774294957763652E-3 0
-4.533830872993145E-3 0
-3.091779388696088E-3 0
-7.071077384130806E-3 0
6.365515072169434E-3 0
-2.862028156275743E-3 0
-2.385533929413031E-4 0
-3.7084185540535546E-3 0
6.889986195755931E-3 0
1.28621953834747E-2 0
-5.239064672822917E-3 0
5.385167657121729E-3 0
-5.405954076779699E-4 0
-8.408636065711246E-3 0
-4.5646638334626374E-4 0
6.08649145442758E-3 0
-5.271204832582504E-3 0
1.271814901160843E-2 0
5.607545508680285E-3 0
-4.0295781144877E-3 0
-7.392060319472164E-4 0
-3.0193024303021256E-2 0
1.7089144977852327E-2 0
-8.045441213973669E-3 0
1.1032547146725488E-2 0
-6.33884296456561E-3 0
-5.835584075021408E-3 0
9.574751558429625E-3 0
-9.480555724298134E-3 0
1.4270645177095583E-2 0
-2.4991986821406693E-2 0
-5.98579194129048E-3 0
1.2931046303243387E-2 0
1.986428384483284E-2 0
-4.862884500604898E-3 0
1.8297695428560575E-2 0
7.485132862198906E-4 0
-1.169451636805083E-3 0
5.894723978145269E-1 0
-3.8912052992800227E-3 0
-1.9537093747408795E-3 0
1.4063149756590678E-2 0
-6.825407820749865E-3 0
1.6822598395036397E-2 0
1.3575918917470965E-2 0
-4.103059666629228E-3 0
-1.290377157743555E-3 0
-3.1103178522709296E-3 0
6.3104911256771125E-3 0
-7.366997803375791E-3 0
-2.7184726001114896E-3 0
-4.631484247409597E-3 0
-4.281221031265472E-3 0
-2.9225929254211767E-3 0
-7.201681865764775E-3 0
6.226007313962505E-3 0
-3.395957899718353E-3 0
-4.319070015964674E-4 0
-4.2550416978907974E-3 0
6.360417007913791E-3 0
1.2199477842780219E-2 0
-4.839858514579073E-3 0
5.9353211341186575E-3 0
-3.998955858050332E-4 0
-8.14507036649911E-3 0
-6.652290489286154E-4 0
6.205094987208184E-3 0
-5.912649966466602E-3 0
1.290299827420698E-2 0
4.99347455048913E-3 0
-4.213929730860201E-3 0
-5.222921495907201E-3 0
-2.2350714092382595E-2 0
1.7010104006545696E-2 0
-8.612874255519931E-3 0
1.1087607397808244E-2 0
-6.658858943706589E-3 0
-5.912360976301468E-3 0
9.462944847133078E-3 0
-9.713407389950933E-3 0
1.5181013088397219E-2 0
-2.4185842103863705E-2 0
-3.7994600450351277E-3 0
1.5278700263099156E-2 0
2.0590196687758206E-2 0
-4.538621718633292E-3 0
1.7637042503749693E-2 0
-8.79198200344815E-4 0
-3.8912052992800253E-3 0
5.881783025949204E-1 0
-6.1921005483990986E-3 0
-2.196337582245054E-3 0
1.3107285533562373E-2 0
-7.800111394577966E-3 0
1.7424355969704486E-2 0
1.323989671951556E-2 0
-5.824498941141651E-3 0
-9.061522903404419E-4 0
-3.277981524127491E-3 0
6.522865190863868E-3 0
-7.402633924874451E-3 0
-2.519034135648844E-3 0
-4.600522981071353E-3 0
-4.3430216621746925E-3 0
-3.079289463797243E-3 0
-7.7785679004656E-3 0
5.626659991361304E-3 0
-3.8753400929308155E-3 0
-4.453309460225575E-4 0
-4.665374174725688E-3 0
6.471998494330442E-3 0
1.3021656090156965E-2 0
-4.769982889972532E-3 0
6.195298649631386E-3 0
-6.260687367581451E-4 0
-8.03223162423233E-3 0
-1.021140985814212E-3 0
6.36278217805856E-3 0
-6.719886294986314E-3 0
1.3409154254381385E-2 0
4.914127543365195E-3 0
1.7082633136458202E-2 0
-3.611399678653298E-3 0
-2.2815798884920437E-2 0
1.7102915839240472E-2 0
-9.085669289266667E-3 0
1.1361460440942328E-2 0
-6.913937344705895E-3 0
-6.00113205834837E-3 0
9.958614800591301E-3 0
-9.49292543810697E-3 0
1.6485907109540045E-2 0
-2.313513276535332E-2 0
-2.3465058035415376E-3 0
1.5040603198458957E-2 0
1.935845413104158E-2 0
-5.569157759825607E-3 0
1.5470596990893731E-2 0
-1.9537093747408734E-3 0
-6.192100548399125E-3 0
5.882855334712519E-1 0
-8.392237285897993E-3 0
-1.5340474355931691E-3 0
1.2220946698969122E-2 0
-8.417059227463617E-3 0
1.801408191431607E-2 0
7.008713133652998E-3 0
-4.3806185666627855E-3 0
-7.132072132177507E-4 0
-3.4962771525987365E-3 0
6.751147684812486E-3 0
-7.489652891674421E-3 0
-2.428679132426752E-3 0
-4.7426610321036336E-3 0
-4.726433810985482E-3 0
-3.2898885706294564E-3 0
-8.196714006565372E-3 0
6.2880872773388675E-3 0
-3.771225893110436E-3 0
-4.255967496266347E-4 0
-4.115957238762674E-3 0
6.528283900920992E-3 0
1.2882755868101224E-2 0
-5.177517896172724E-3 0
6.2530946147979025E-3 0
-1.0037592033282012E-3 0
-8.112925903031127E-3 0
-1.1899035522595124E-3 0
6.4198682027177805E-3 0
-6.9808318780046515E-3 0
1.343579302205309E-2 0
2.3471462279745125E-2 0
1.192092023149924E-2 0
-3.515100684003238E-3 0
-2.3224897513928523E-2 0
1.7448094614001E-2 0
-9.685204711040783E-3 0
1.1775194402590264E-2 0
-6.855506920741108E-3 0
-6.120275873473335E-3 0
1.067982681984278E-2 0
-9.973905172489795E-3 0
1.7557958578636484E-2 0
-2.444030502404686E-2 0
-1.966773920108005E-3 0
1.4124717789920365E-2 0
1.8800087591723687E-2 0
-6.253042978044666E-3 0
1.4063149756590695E-2 0
-2.196337582245058E-3 0
-8.392237285898031E-3 0
5.89809361861544E-1 0
-1.1334146722610006E-2 0
6.576048556903525E-5 0
1.1065536132563355E-2 0
-8.875209965833743E-3 0
1.6892774360638112E-2 0
5.072838231668936E-3 0
-4.6476348229812494E-3 0
-3.565118215232607E-4 0
-3.7178325996951615E-3 0
6.903142779600837E-3 0
-7.736969334728042E-3 0
-2.4813292722747657E-3 0
-4.834789299588183E-3 0
-5.041950624988293E-3 0
-2.9377686005805587E-3 0
-7.937032473030235E-3 0
7.181557387251402E-3 0
-3.9667960428451E-3 0
-1.0991472190238571E-4 0
-3.907843491064773E-3 0
6.098782210906043E-3 0
1.2760314441992498E-2 0
-5.877855585772645E-3 0
6.380439859671255E-3 0
-1.1842275930631623E-3 0
-8.45660883906955E-3 0
-1.0603721899898478E-3 0
6.038996824179952E-3 0
-6.750483421770472E-3 0
-1.367680789813172E-2 0
1.736885628720817E-2 0
1.155605875347191E-2 0
-3.435658706301472E-3 0
-2.366119498485715E-2 0
1.8254069526001074E-2 0
-1.0397961940480592E-2 0
1.2004454964331742E-2 0
-6.493726556168327E-3 0
-6.460397728152671E-3 0
1.1585988299635053E-2 0
-1.0139071364831812E-2 0
2.0192623855920362E-2 0
-2.4623449604841512E-2 0
-1.261841767800157E-3 0
1.3995693588672097E-2 0
1.7557365040892708E-2 0
-6.825407820749877E-3 0
1.310728553356239E-2 0
-1.5340474355931936E-3 0
-1.1334146722609987E-2 0
5.930713722636415E-1 0
-1.5329267704002513E-2 0
1.5294375020385377E-3 0
1.2354266513734426E-2 0
-9.030232288380787E-3 0
1.2430842317658699E-2 0
5.2480623418592045E-3 0
-5.114930989520555E-3 0
-4.093295648094414E-5 0
-3.8602803600395795E-3 0
7.102823818012256E-3 0
-8.037557023822927E-3 0
-2.627025319710459E-3 0
-4.642164611452128E-3 0
-5.155802832096401E-3 0
-2.6673378633007743E-3 0
-8.71799680732635E-3 0
7.6106544053292525E-3 0
-3.596752987600357E-3 0
-4.155409876310474E-5 0
-3.909900963285578E-3 0
5.6193587714669655E-3 0
1.292142000306E-2 0
-6.708155156021887E-3 0
6.424704058947247E-3 0
-1.0595394316573064E-3 0
-8.906497392748444E-3 0
-6.965958391576547E-4 0
6.11152921708489E-3 0
2.021673237870029E-2 0
-1.0832297842590266E-2 0
1.7569121224506403E-2 0
1.1488493356704101E-2 0
-3.3478602715329565E-3 0
-2.444889766028176E-2 0
1.954486878617268E-2 0
-1.0708812788307605E-2 0
1.2035002024720307E-2 0
-5.7746972697459E-3 0
-6.105833426234937E-3 0
1.3945565191013549E-2 0
-1.083302937333183E-2 0
2.142011344120723E-2 0
-2.4141088208917683E-2 0
-2.1940836763732147E-3 0
1.3779160409442496E-2 0
1.6822598395036373E-2 0
-7.800111394577951E-3 0
1.222094669896911E-2 0
6.576048556906431E-5 0
-1.532926770400253E-2 0
5.979970804531801E-1 0
-1.9249218855237754E-2 0
-6.430381991374206E-4 0
8.589507986655896E-3 0
-6.651407874176898E-3 0
1.2141316480047334E-2 0
5.891288041821762E-3 0
-5.391547119275541E-3 0
-2.144520684214666E-4 0
-3.9744722261318595E-3 0
7.187198263568754E-3 0
-7.901705809728323E-3 0
-3.107395523564765E-3 0
-4.8088172818125255E-3 0
-5.582431526624195E-3 0
-2.7273041020952618E-3 0
-8.909770896137651E-3 0
7.520039840602142E-3 0
-2.9488362413740902E-3 0
-3.062570348627396E-4 0
-4.016272632325168E-3 0
5.002414913950674E-3 0
1.3414326107259967E-2 0
-6.979000308264126E-3 0
6.039138314085849E-3 0
-6.968430445316263E-4 0
-9.3897985423681E-3 0
-1.0223952846946278E-3 0
-9.500078597081433E-3 0
1.5145880995376806E-2 0
-1.072233484614772E-2 0
1.705729381305237E-2 0
1.2197066462670554E-2 0
-2.865052103875381E-3 0
-2.5470524487956985E-2 0
1.967055327615832E-2 0
-9.58402001939008E-3 0
1.1991828057068605E-2 0
-4.5351792981256495E-3 0
-6.981835886560824E-3 0
1.5227153297295203E-2 0
-1.0564941856788196E-2 0
2.0404639552750105E-2 0
-2.355977039037663E-2 0
-3.4585475147865465E-3 0
1.3575918917470967E-2 0
1.742435596970448E-2 0
-8.417059227463608E-3 0
1.1065536132563374E-2 0
1.5294375020385193E-3 0
-1.9249218855237726E-2 0
6.001205994557908E-1 0
-1.4276965643656063E-2 0
-1.664375073546786E-3 0
5.939218858167833E-3 0
-6.191203079204913E-3 0
1.205658037129001E-2 0
6.1385519368699825E-3 0
-5.0294229283847705E-3 0
-5.770028302409325E-4 0
-3.747096503903511E-3 0
6.816065365645235E-3 0
-7.758584545075424E-3 0
-3.652134022020423E-3 0
-5.129879132900502E-3 0
-5.894173452245304E-3 0
-3.182316193835194E-3 0
-7.925708286348265E-3 0
7.220157570530059E-3 0
-2.924843057307491E-3 0
-7.242386625324039E-4 0
-4.209352881536907E-3 0
4.915874263702972E-3 0
1.3435958188869005E-2 0
-6.750826682579765E-3 0
6.111123787509071E-3 0
-1.0225109307165638E-3 0
-9.690462098837444E-3 0
-8.883148962477347E-3 0
-6.6429268250676665E-3 0
1.4466683705935747E-2 0
-9.662382634269119E-3 0
1.676675472514147E-2 0
1.3168006573292467E-2 0
-3.0282184567128035E-3 0
-2.4610767977778586E-2 0
1.866132267362018E-2 0
-8.288272972259664E-3 0
1.1930733624807188E-2 0
-4.357411969021501E-3 0
-6.701985252059278E-3 0
1.4367435494254243E-2 0
-9.087362436889899E-3 0
1.9055772005072892E-2 0
-2.311677014867225E-2 0
-4.1030596666292215E-3 0
1.3239896719515556E-2 0
1.8014081914316093E-2 0
-8.875209965833762E-3 0
1.2354266513734445E-2 0
-6.430381991374223E-4 0
-1.427696564365607E-2 0
5.975019935212095E-1 0
