%%MatrixMarket matrix array complex general
%
50 50
4.7953485253287836E-1 0
-1.3094823896321573E-3 0
-2.3735251998186846E-3 0
1.1982950986071012E-4 0
5.6774332163014515E-3 0
-1.4941522905712263E-3 0
4.171581965684981E-3 0
-2.673666824102969E-5 0
-8.774182022317883E-4 0
6.43123981948224E-4 0
7.938426720883985E-5 0
5.658470280207926E-4 0
1.4627111829537119E-3 0
1.4627111829534647E-3 0
5.623631096535528E-4 0
9.520360244161607E-5 0
6.034925292385199E-4 0
-8.01030990194656E-4 0
-1.5462545325482831E-4 0
4.3663191944883235E-3 0
-1.76379744000875E-3 0
6.004048207309624E-3 0
-1.8254698127719935E-4 0
-2.1997923101910065E-3 0
-1.4269759491464355E-3 0
-1.3176059850838704E-2 0
-1.062465498695232E-2 0
9.231823567482962E-3 0
4.185450557010737E-3 0
-5.3934521823422515E-3 0
-6.0639327370113775E-3 0
-4.837201474207004E-4 0
-7.2469644473799975E-3 0
-5.923703341548205E-3 0
9.387895319949841E-3 0
-7.641238543541889E-3 0
1.431941918494302E-2 0
4.020917781244972E-3 0
4.020917781245062E-3 0
1.431940061057844E-2 0
-7.641154203420096E-3 0
9.387055090085682E-3 0
-5.9190591526607165E-3 0
-7.263449627658803E-3 0
-4.4008132062436526E-4 0
-6.167786076298503E-3 0
-5.174099934738048E-3 0
3.6474191790991737E-3 0
1.0063886397626213E-2 0
-1.1663754112186496E-2 0
-1.3094823896321565E-3 0
4.8913972238797765E-1 0
-9.610037731871619E-4 0
-1.7421032274156597E-3 0
7.444484897273678E-5 0
4.123041497952954E-3 0
-1.103224969274362E-3 0
3.036758203740998E-3 0
-3.3128873240554084E-5 0
-6.535246601652633E-4 0
4.7811065757043817E-4 0
1.2153202901502298E-4 0
4.930335654871167E-4 0
9.143193741819825E-4 0
8.380359340507719E-4 0
3.616049359008108E-4 0
7.896780861282533E-5 0
4.4511516323800205E-4 0
-5.330724781333404E-4 0
-1.4739986352668507E-4 0
3.292049081045706E-3 0
-1.4050375531854638E-3 0
4.544746584516013E-3 0
-2.3054739761103633E-4 0
-1.6816770380688995E-3 0
-1.0624654986952878E-2 0
-6.973163876403512E-3 0
-7.724610289809126E-3 0
6.703936375267978E-3 0
2.9973500905723246E-3 0
-4.007023650966238E-3 0
-4.584001118869451E-3 0
-5.75151134684434E-4 0
-5.596075678653143E-3 0
-4.724559035909863E-3 0
6.373611100442666E-3 0
-5.753111462437687E-3 0
1.1096587007230275E-2 0
2.8645009583968426E-3 0
2.8032263812847323E-3 0
1.0697393373225532E-2 0
-5.319996056626424E-3 0
7.095761319399169E-3 0
-4.236401596197023E-3 0
-5.138457837621938E-3 0
-3.6090465905605214E-4 0
-4.335397994171489E-3 0
-3.976672029565334E-3 0
3.17271407018031E-3 0
7.081479583167209E-3 0
-2.373525199818686E-3 0
-9.610037731871736E-4 0
4.8912549953938883E-1 0
-9.761315333758886E-4 0
-1.7568143474640764E-3 0
6.075637573663077E-5 0
4.109023883205799E-3 0
-1.12056031186097E-3 0
3.009752498213512E-3 0
-5.7474115849840475E-5 0
-6.727259930207162E-4 0
5.307289367595348E-4 0
1.472571522283384E-4 0
3.697223320906728E-4 0
8.477280249315546E-4 0
9.024216532357328E-4 0
3.5883200027116244E-4 0
8.243576814116323E-5 0
4.262436997470916E-4 0
-4.99965068134093E-4 0
-1.9412650565548128E-4 0
3.4066577855610034E-3 0
-1.5651566339621426E-3 0
4.697571217199551E-3 0
-1.5153240991743134E-4 0
9.231823567483798E-3 0
-7.724520496057429E-3 0
-7.012450710479347E-3 0
-7.776306999714365E-3 0
6.633495621163526E-3 0
2.8926826303131356E-3 0
-4.171502211703623E-3 0
-4.8350945494446155E-3 0
-9.440407233049309E-4 0
-6.047796518649066E-3 0
-5.089562663500317E-3 0
6.477127008325315E-3 0
-5.809078125745947E-3 0
1.1053357684252944E-2 0
2.767304562343424E-3 0
2.8383900625253942E-3 0
1.07157815405938E-2 0
-5.335006158329575E-3 0
7.170545375494849E-3 0
-4.29757027287303E-3 0
-5.072856690130545E-3 0
-3.6670062653007014E-4 0
-4.2744481075505615E-3 0
-4.05057367581821E-3 0
3.3521300957286802E-3 0
1.1982950986071126E-4 0
-1.7421032274156432E-3 0
-9.761315333758558E-4 0
4.8911055983682195E-1 0
-9.909266439694264E-4 0
-1.7720818359517538E-3 0
4.314227633431399E-5 0
4.087402207252955E-3 0
-1.1471951236386101E-3 0
3.001821247618028E-3 0
-2.340672354286463E-5 0
-4.977116115169935E-4 0
6.56972434590988E-4 0
-3.907641555385569E-5 0
2.5674929656143753E-4 0
8.503592357868258E-4 0
8.672100231334717E-4 0
3.45246974379664E-4 0
6.997361327937577E-5 0
4.3447888201877044E-4 0
-4.860004649839907E-4 0
-1.9864608356657076E-4 0
3.4564691789431604E-3 0
-1.5185476649612426E-3 0
4.601623331061619E-3 0
4.185450557009945E-3 0
6.704173039340892E-3 0
-7.775954413183233E-3 0
-7.0749118324803986E-3 0
-7.857064009335257E-3 0
6.517550395289143E-3 0
2.715501962673709E-3 0
-4.43334731079961E-3 0
-5.2111603663214014E-3 0
-1.382475987045459E-3 0
-6.611370346254202E-3 0
-5.267666184135782E-3 0
7.004958672949974E-3 0
-5.795091547991723E-3 0
1.0868095832810678E-2 0
3.1982090138059486E-3 0
2.735543185790551E-3 0
1.0637784684748094E-2 0
-5.577720388272263E-3 0
7.190884616508659E-3 0
-4.424472132224313E-3 0
-5.06875397925926E-3 0
-2.584600706883064E-4 0
-4.519625790809961E-3 0
-4.013965133507343E-3 0
5.67743321630145E-3 0
7.444484897274781E-5 0
-1.7568143474640753E-3 0
-9.90926643969439E-4 0
4.89093818675172E-1 0
-1.0121626415673028E-3 0
-1.8005914182716775E-3 0
7.453188541202492E-6 0
4.05132703117151E-3 0
-1.1529869528197059E-3 0
3.076675628584809E-3 0
1.302366335210602E-4 0
-5.468909736054185E-4 0
4.616444891852196E-4 0
-5.497080429110088E-5 0
3.2266960355849765E-4 0
8.668388412949613E-4 0
8.701443496809462E-4 0
3.6077125920322233E-4 0
6.481728583154754E-5 0
4.6831260720938664E-4 0
-5.153493273119737E-4 0
-1.6877988412531309E-4 0
3.3396521048855844E-3 0
-1.276381968983215E-3 0
-5.393452182341708E-3 0
2.9976202743489918E-3 0
6.634433101205868E-3 0
-7.855629612865948E-3 0
-7.16887896838248E-3 0
-7.97895253155396E-3 0
6.346562564527573E-3 0
2.4798612442470053E-3 0
-4.752384881475729E-3 0
-5.549876864619392E-3 0
-1.680824617361113E-3 0
-6.318018146252007E-3 0
-5.09773951627444E-3 0
7.008174864426626E-3 0
-5.241232000096219E-3 0
1.0812096446678812E-2 0
2.8062637223517342E-3 0
2.3490503876359417E-3 0
1.050839999800584E-2 0
-5.880144931927629E-3 0
7.299355049910102E-3 0
-4.623656225958926E-3 0
-4.983844495971921E-3 0
-2.581527283046515E-4 0
-4.710515805314878E-3 0
-1.4941522905712256E-3 0
4.123041497952939E-3 0
6.0756375736643546E-5 0
-1.7720818359517432E-3 0
-1.0121626415672985E-3 0
4.890602810220467E-1 0
-1.0640128225522952E-3 0
-1.8705881297688828E-3 0
-6.619483454476448E-5 0
4.01080718903613E-3 0
-1.130494123761332E-3 0
3.1362424628521173E-3 0
1.255365678873572E-4 0
-6.036879661137856E-4 0
5.032181284675321E-4 0
9.593803328824955E-5 0
4.3114560046998116E-4 0
9.319627878702796E-4 0
8.976096398202578E-4 0
3.9822913671956134E-4 0
4.510032247104047E-5 0
5.188048313686844E-4 0
-5.891780386649829E-4 0
-4.9923839838095365E-5 0
3.267674024368094E-3 0
-6.063932737011584E-3 0
-4.007037197354227E-3 0
2.894349350473457E-3 0
6.522140257869976E-3 0
-7.973422070443102E-3 0
-7.299152062545734E-3 0
-8.135962869670393E-3 0
6.156709678548701E-3 0
2.252043762422426E-3 0
-4.959248577235204E-3 0
-5.6917969286618365E-3 0
-1.4866379571499679E-3 0
-6.415317630184821E-3 0
-5.108479143664221E-3 0
6.875304105233283E-3 0
-5.154220278876302E-3 0
1.0417089066790793E-2 0
2.5263927116427154E-3 0
1.969495936297035E-3 0
1.051386106722251E-2 0
-6.185226275612685E-3 0
7.610357142066958E-3 0
-4.907465619028812E-3 0
-4.771439483644787E-3 0
-4.3779669624535435E-4 0
4.171581965684981E-3 0
-1.1032249692743462E-3 0
4.1090238832057965E-3 0
4.314227633431447E-5 0
-1.8005914182716708E-3 0
-1.0640128225522742E-3 0
4.8897192397570566E-1 0
-1.1929728667349393E-3 0
-2.020988953338067E-3 0
-1.9377882553140872E-4 0
3.988391005739796E-3 0
-1.0614936526334886E-3 0
3.341114949074492E-3 0
1.3661602515883839E-4 0
-4.899383975402694E-4 0
6.657604034196035E-4 0
2.751227692814065E-4 0
5.556286594721936E-4 0
1.001353333216207E-3 0
9.141285283176663E-4 0
4.1365974396678366E-4 0
4.4706036246980835E-6 0
5.703311350034692E-4 0
-7.013000240651313E-4 0
3.994894847677476E-5 0
-4.8372014742076454E-4 0
-4.5842479255298425E-3 0
-4.168415372895636E-3 0
2.725533088800817E-3 0
6.3625146994879525E-3 0
-8.122100062015712E-3 0
-7.445213441207336E-3 0
-8.279449542416405E-3 0
6.028569760305453E-3 0
2.1972116442835372E-3 0
-5.037429943227368E-3 0
-5.5935501588943734E-3 0
-1.4034568795748565E-3 0
-6.3934208216689815E-3 0
-4.5302358303798695E-3 0
7.004943582545219E-3 0
-5.44249453075738E-3 0
1.0086213690866411E-2 0
2.35062880234587E-3 0
1.759569024977647E-3 0
1.0707503771485225E-2 0
-6.482672585814983E-3 0
8.137843378081336E-3 0
-5.236582570298171E-3 0
-5.026106372558308E-3 0
-2.6736668241033383E-5 0
3.036758203740991E-3 0
-1.1205603118609646E-3 0
4.087402207252956E-3 0
7.453188541205452E-6 0
-1.870588129768879E-3 0
-1.1929728667349395E-3 0
4.887690011170924E-1 0
-1.4568867817524491E-3 0
-2.2994694928434025E-3 0
-3.8234000692909705E-4 0
3.8662997432811204E-3 0
-1.1515796344367093E-3 0
3.5250749007433337E-3 0
4.1304109063456187E-4 0
-1.4704434765334728E-4 0
9.86335622019848E-4 0
4.4823679391530695E-4 0
6.248884643642329E-4 0
9.975839846952008E-4 0
8.946405472882593E-4 0
3.8833859462015293E-4 0
-7.87452561106197E-6 0
5.542072040186376E-4 0
-6.87673452111004E-4 0
-7.246964447379779E-3 0
-5.744425234216685E-4 0
-4.82846923852371E-3 0
-4.415195082141884E-3 0
2.509515556460175E-3 0
6.189398549177902E-3 0
-8.257747409739544E-3 0
-7.549468647716129E-3 0
-8.325188770869137E-3 0
6.107390244606756E-3 0
2.486201377869666E-3 0
-4.640985736842526E-3 0
-5.693424268879098E-3 0
-1.3230604877775582E-3 0
-6.016832966019343E-3 0
-4.7541893026070686E-3 0
6.725670337633475E-3 0
-5.643510794366589E-3 0
1.0005414052045691E-2 0
2.3254255315783416E-3 0
1.7539413865353386E-3 0
1.1058929051028722E-2 0
-6.731385130666797E-3 0
8.501252489003373E-3 0
-5.102831381989541E-3 0
-8.774182022317894E-4 0
-3.3128873240554606E-5 0
3.009752498213504E-3 0
-1.147195123638613E-3 0
4.051327031171508E-3 0
-6.619483454476412E-5 0
-2.0209889533380656E-3 0
-1.456886781752419E-3 0
4.883783479100908E-1 0
-1.9318937135705714E-3 0
-2.807071857368359E-3 0
-7.177033770974585E-4 0
4.1211205374055955E-3 0
-8.122588675486656E-4 0
3.842423763307422E-3 0
9.621030330180895E-4 0
2.2760826201294443E-4 0
1.1418438139553216E-3 0
4.444502143073772E-4 0
5.637631582261105E-4 0
9.239966322853465E-4 0
8.696816716164679E-4 0
3.6825775100197337E-4 0
3.066580967924336E-5 0
5.3172687693575E-4 0
-5.923703341548451E-3 0
-5.590691634948904E-3 0
-9.284977397242045E-4 0
-5.180258592714153E-3 0
-4.708681574532816E-3 0
2.298840055017705E-3 0
6.065681601345064E-3 0
-8.309408349636718E-3 0
-7.545612503297969E-3 0
-8.256135692669924E-3 0
6.391402777821937E-3 0
2.5523889279578495E-3 0
-5.050410768570349E-3 0
-5.616848192004426E-3 0
-1.2942488316995833E-3 0
-5.941586145400742E-3 0
-4.6048934764607525E-3 0
6.80743045188658E-3 0
-5.762583290740032E-3 0
1.0197448989294923E-2 0
2.4301771167926675E-3 0
2.0541219381649974E-3 0
1.1405200640136282E-2 0
-6.485176338644989E-3 0
8.058633471387903E-3 0
6.431239819482262E-4 0
-6.535246601652626E-4 0
-5.7474115849840143E-5 0
3.0018212476180263E-3 0
-1.1529869528197104E-3 0
4.0108071890361295E-3 0
-1.9377882553140734E-4 0
-2.2994694928434134E-3 0
-1.9318937135705534E-3 0
4.877442717002656E-1 0
-2.5769023260463282E-3 0
-3.024610213316868E-3 0
-5.211590995747815E-4 0
4.492762754640179E-3 0
-2.1792423229344878E-4 0
4.335430020712323E-3 0
1.1656436570508198E-3 0
2.268156269664456E-4 0
9.898651530535019E-4 0
2.681333812473278E-4 0
4.4016570819906803E-4 0
8.586291790185832E-4 0
8.699701594612199E-4 0
3.6747200127009957E-4 0
6.039346202389111E-5 0
9.387895319950015E-3 0
-4.713018991997508E-3 0
-6.02198057826594E-3 0
-1.3359794988265098E-3 0
-5.491822136865186E-3 0
-4.9049619342893215E-3 0
2.2375235221763425E-3 0
6.115166978399652E-3 0
-8.290705967012849E-3 0
-7.642886356195584E-3 0
-8.332564950219086E-3 0
6.120156182052579E-3 0
2.375593454992873E-3 0
-5.055813176816366E-3 0
-5.219889774980956E-3 0
-8.711092674843229E-4 0
-5.4221335432062465E-3 0
-4.666145079557291E-3 0
6.932763101907539E-3 0
-5.803428425214801E-3 0
1.0713374430398503E-2 0
2.5162230335908503E-3 0
2.513897198891245E-3 0
1.1284305389994467E-2 0
-5.989091814727813E-3 0
7.938426720883612E-5 0
4.78110657570441E-4 0
-6.727259930207159E-4 0
-2.34067235428661E-5 0
3.076675628584804E-3 0
-1.130494123761336E-3 0
3.98839100573979E-3 0
-3.823400069290929E-4 0
-2.8070718573683403E-3 0
-2.5769023260463217E-3 0
4.867379589655348E-1 0
-3.1987804274174283E-3 0
-3.052530529305064E-3 0
-2.253814952588948E-4 0
5.238383028642589E-3 0
6.083003711249304E-4 0
4.3370649203357346E-3 0
9.597469684895916E-4 0
-1.4522869705624515E-4 0
6.65709886378951E-4 0
9.379156478653111E-5 0
3.2643882762683097E-4 0
8.42488182717156E-4 0
9.133955140709479E-4 0
3.8137122588995586E-4 0
-7.641238543541967E-3 0
6.394206956324777E-3 0
-5.066064178288864E-3 0
-6.556590512894116E-3 0
-1.586421752168436E-3 0
-5.6493862555007214E-3 0
-5.002452615122785E-3 0
2.4842974289349027E-3 0
6.214490970985551E-3 0
-8.499723105794584E-3 0
-8.059661583791492E-3 0
-8.854404684068415E-3 0
6.014365094545115E-3 0
2.247452705784599E-3 0
-4.465971684337382E-3 0
-4.6464400058033465E-3 0
-7.586442810046368E-4 0
-5.618278950664992E-3 0
-5.027345192780306E-3 0
7.403907014377781E-3 0
-5.795151776232115E-3 0
1.1425981195332469E-2 0
2.527382177116612E-3 0
3.116149680001909E-3 0
1.1194287636970867E-2 0
5.658470280207964E-4 0
1.2153202901502307E-4 0
5.307289367595325E-4 0
-4.977116115169949E-4 0
1.3023663352106419E-4 0
3.136242462852122E-3 0
-1.0614936526334787E-3 0
3.8662997432811173E-3 0
-7.177033770974766E-4 0
-3.024610213316872E-3 0
-3.1987804274174513E-3 0
4.867146772261145E-1 0
-2.8305592842994185E-3 0
-3.046584942610553E-3 0
3.986512489676228E-4 0
5.241315140935207E-3 0
-2.2531307956626958E-4 0
3.854966187926005E-3 0
3.9647793769840943E-4 0
-4.723135661024276E-4 0
4.8776132000391434E-4 0
-4.275646458694453E-5 0
2.4331354571613837E-4 0
8.644161848378967E-4 0
8.730106934019359E-4 0
1.4319419184943038E-2 0
-5.749551999992786E-3 0
6.463791111004745E-3 0
-5.250508463430334E-3 0
-6.1947481267361E-3 0
-1.430489312202262E-3 0
-5.526598319451917E-3 0
-4.610077635927057E-3 0
2.222662734271621E-3 0
5.7081339684394265E-3 0
-9.385249634957448E-3 0
-9.006284775219855E-3 0
-1.0019175145588179E-2 0
5.530823542632341E-3 0
2.634569493606815E-3 0
-3.956065109950849E-3 0
-4.7421769110892265E-3 0
-1.1058826657535912E-3 0
-5.787071888369624E-3 0
-5.0376595983007534E-3 0
7.5144118327704484E-3 0
-6.35859574372241E-3 0
1.2065605165762787E-2 0
1.7183766459054753E-3 0
3.39461177353194E-3 0
1.4627111829537119E-3 0
4.930335654871186E-4 0
1.4725715222833823E-4 0
6.5697243459099E-4 0
-5.468909736054175E-4 0
1.2553656788735776E-4 0
3.3411149490744905E-3 0
-1.1515796344367046E-3 0
4.121120537405597E-3 0
-5.211590995747823E-4 0
-3.052530529305068E-3 0
-2.830559284299421E-3 0
4.8563182823550927E-1 0
-3.2564542638657693E-3 0
-3.045160227748249E-3 0
-2.318506600444122E-4 0
4.508381391847691E-3 0
-8.395337472410027E-4 0
3.5631223770660058E-3 0
9.30766174552306E-5 0
-5.638503285173797E-4 0
4.352740001201249E-4 0
-2.740998091674564E-5 0
3.6473219955941244E-4 0
9.659372619048684E-4 0
4.020917781244994E-3 0
1.108649634691917E-2 0
-5.831864186265371E-3 0
6.994312145476168E-3 0
-5.032483965240268E-3 0
-6.3714693005743495E-3 0
-1.349585999264752E-3 0
-5.6610114007336195E-3 0
-5.249293177171333E-3 0
2.091042394931445E-3 0
5.4963033679726134E-3 0
-1.0412211768687687E-2 0
-1.0346019493870788E-2 0
-1.1005734556762152E-2 0
5.919611037132721E-3 0
2.784808337284948E-3 0
-4.8212212447216645E-3 0
-5.313867254432426E-3 0
-1.5542437403778548E-3 0
-6.08562384823904E-3 0
-5.787167460293231E-3 0
7.967195424541737E-3 0
-7.277437836529307E-3 0
1.2639145820438626E-2 0
2.3011521260995365E-3 0
1.4627111829534644E-3 0
9.143193741819821E-4 0
3.69722332090672E-4 0
-3.907641555385832E-5 0
4.616444891852187E-4 0
-6.036879661137835E-4 0
1.3661602515883727E-4 0
3.525074900743332E-3 0
-8.122588675486687E-4 0
4.492762754640177E-3 0
-2.253814952588929E-4 0
-3.046584942610549E-3 0
-3.256454263865772E-3 0
4.856318282355093E-1 0
-2.8327048312706427E-3 0
-3.0427883013834393E-3 0
-5.449089956845063E-4 0
4.1637380319518484E-3 0
-1.214180719880311E-3 0
3.4190028468231827E-3 0
4.511396772445854E-5 0
-4.8384469999881205E-4 0
6.315697067578607E-4 0
1.3788381665077055E-4 0
5.306669410082633E-4 0
4.020917781245062E-3 0
2.8745916187079253E-3 0
1.1076143744772409E-2 0
-5.78444502051796E-3 0
6.942919313392484E-3 0
-5.152327473274708E-3 0
-6.447291701979083E-3 0
-1.355473355923029E-3 0
-5.4179657834034466E-3 0
-4.771262116754954E-3 0
2.765514432357095E-3 0
5.923860165731845E-3 0
-1.1005734556762164E-2 0
-1.0346019493870788E-2 0
-1.0410612637632748E-2 0
5.489042236231964E-3 0
2.1105260685393428E-3 0
-5.2930636299892975E-3 0
-5.567560938375478E-3 0
-1.5425716931389804E-3 0
-5.981018691840546E-3 0
-5.75294574239519E-3 0
8.236216458416561E-3 0
-7.315770869191326E-3 0
1.2425636585951614E-2 0
5.62363109653558E-4 0
8.380359340507738E-4 0
8.477280249315547E-4 0
2.5674929656143645E-4 0
-5.497080429109942E-5 0
5.032181284675344E-4 0
-4.899383975402678E-4 0
4.130410906345669E-4 0
3.8424237633074235E-3 0
-2.1792423229345008E-4 0
5.23838302864261E-3 0
3.9865124896763744E-4 0
-3.045160227748252E-3 0
-2.832704831270642E-3 0
4.867195177786088E-1 0
-3.2117733869491487E-3 0
-2.996619761293147E-3 0
-7.672383047383768E-4 0
3.942759153314153E-3 0
-1.167040059533573E-3 0
3.2647276788733714E-3 0
-9.438845864756093E-7 0
-4.007151330772185E-4 0
4.915307909982266E-4 0
1.3469863740473939E-4 0
1.431940061057845E-2 0
2.7996674417910972E-3 0
2.7806407023357555E-3 0
1.085093851087141E-2 0
-5.364501344137327E-3 0
6.819154487083656E-3 0
-4.597188328094615E-3 0
-6.0477409869753905E-3 0
-9.645237658527593E-4 0
-4.807866865822294E-3 0
-3.9351200003060706E-3 0
2.6345909276086284E-3 0
5.526591311944712E-3 0
-1.001759291244474E-2 0
-9.005116662408401E-3 0
-9.38982162906873E-3 0
5.716973517316941E-3 0
2.2106664761413026E-3 0
-4.602218584525701E-3 0
-5.50997078322641E-3 0
-1.5239182498435332E-3 0
-5.93527286525699E-3 0
-5.863572628924304E-3 0
7.334257742963994E-3 0
-6.52537859431554E-3 0
9.520360244161442E-5 0
3.6160493590080983E-4 0
9.024216532357306E-4 0
8.503592357868227E-4 0
3.22669603558502E-4 0
9.593803328825228E-5 0
6.65760403419604E-4 0
-1.4704434765335165E-4 0
9.621030330180809E-4 0
4.335430020712326E-3 0
6.083003711249529E-4 0
5.241315140935222E-3 0
-2.318506600444142E-4 0
-3.042788301383434E-3 0
-3.2117733869491596E-3 0
4.867561514067567E-1 0
-2.603713717942494E-3 0
-2.766106075327873E-3 0
-4.479525382521297E-4 0
4.093537997668878E-3 0
-1.287624451638978E-3 0
3.281041711452967E-3 0
-2.2615104717064118E-4 0
-5.432988734115023E-4 0
4.5707402050269044E-4 0
-7.6411542034201E-3 0
1.0676795142792529E-2 0
2.814890475420766E-3 0
3.143427369778796E-3 0
1.0717690514375721E-2 0
-5.196626533045396E-3 0
6.969969243440048E-3 0
-4.75228571674192E-3 0
-5.764669217414014E-3 0
-7.039542701538659E-4 0
-4.646470578802951E-3 0
-4.487007385640388E-3 0
2.2666698828162487E-3 0
6.007180690700679E-3 0
-8.858872620236925E-3 0
-8.042698029675789E-3 0
-8.533181231058753E-3 0
6.269705341808402E-3 0
2.4022685956750275E-3 0
-4.891248289049491E-3 0
-5.783293511304024E-3 0
-1.4554404086436644E-3 0
-6.562092830120434E-3 0
-5.249807152382596E-3 0
6.873835789871523E-3 0
6.034925292385212E-4 0
7.896780861282788E-5 0
3.5883200027116163E-4 0
8.672100231334741E-4 0
8.668388412949622E-4 0
4.311456004699806E-4 0
2.751227692814024E-4 0
9.863356220198491E-4 0
2.2760826201295476E-4 0
1.1656436570508255E-3 0
4.337064920335743E-3 0
-2.2531307956626145E-4 0
4.5083813918476955E-3 0
-5.449089956845049E-4 0
-2.9966197612931564E-3 0
-2.603713717942515E-3 0
4.877651658224843E-1 0
-1.9467869114792521E-3 0
-2.277397854744404E-3 0
-2.521858273861639E-4 0
4.146048003951202E-3 0
-1.3965027460782881E-3 0
3.338995633526789E-3 0
-3.747641706958371E-4 0
-5.345640245061823E-4 0
9.387055090085677E-3 0
-5.331530340644348E-3 0
1.0689968286396272E-2 0
2.6890510934459936E-3 0
2.74821641334328E-3 0
1.0362791710669996E-2 0
-5.482813659993545E-3 0
6.71789448365129E-3 0
-4.570335589130616E-3 0
-5.422125937395293E-3 0
-9.257332455987487E-4 0
-5.153974452602201E-3 0
-5.105593101706024E-3 0
2.3948979255237197E-3 0
6.128771754249198E-3 0
-8.366095424136435E-3 0
-7.580954438647204E-3 0
-8.388198541034083E-3 0
6.25713432936322E-3 0
2.0437099843371408E-3 0
-4.648180292721306E-3 0
-5.825706475238704E-3 0
-9.122428231918841E-4 0
-6.439201996896137E-3 0
-4.770587548287605E-3 0
-8.010309901946558E-4 0
4.451151632380007E-4 0
8.243576814116712E-5 0
3.452469743796634E-4 0
8.701443496809468E-4 0
9.319627878702797E-4 0
5.556286594721958E-4 0
4.482367939153104E-4 0
1.1418438139553315E-3 0
2.2681562696645567E-4 0
9.597469684895941E-4 0
3.8549661879260077E-3 0
-8.395337472409996E-4 0
4.163738031951847E-3 0
-7.672383047383839E-4 0
-2.766106075327871E-3 0
-1.9467869114792506E-3 0
4.8835510687301953E-1 0
-1.4042724779276315E-3 0
-2.0661255505450326E-3 0
-9.338297642171056E-5 0
4.22388380335953E-3 0
-1.5179713958237994E-3 0
3.4662504750346793E-3 0
-2.9360240957525507E-4 0
-5.919059152660692E-3 0
7.0903670825936405E-3 0
-5.350553961867842E-3 0
1.0606875113125955E-2 0
2.3053340566537637E-3 0
2.4796153486337713E-3 0
1.004911468723961E-2 0
-5.6592927682056525E-3 0
6.807452197720975E-3 0
-4.700728540115504E-3 0
-5.795288520308852E-3 0
-1.4359497985846025E-3 0
-5.5130324509455545E-3 0
-5.093898433476165E-3 0
2.5407324819833265E-3 0
6.446720028741165E-3 0
-8.353627460582541E-3 0
-7.39972520390929E-3 0
-8.513433084757233E-3 0
6.32891626291254E-3 0
1.9822010504185086E-3 0
-4.344870195133089E-3 0
-5.626200237976019E-3 0
-4.571868726475425E-4 0
-6.136198525056475E-3 0
-1.5462545325483094E-4 0
-5.330724781333374E-4 0
4.262436997470883E-4 0
6.997361327937996E-5 0
3.607712592032261E-4 0
8.976096398202625E-4 0
1.001353333216213E-3 0
6.248884643642383E-4 0
4.444502143073821E-4 0
9.898651530535064E-4 0
-1.4522869705624276E-4 0
3.96477937698409E-4 0
3.5631223770660075E-3 0
-1.2141807198803151E-3 0
3.942759153314147E-3 0
-4.479525382521154E-4 0
-2.277397854744435E-3 0
-1.4042724779276317E-3 0
4.886344040024038E-1 0
-1.0065333760184735E-3 0
-2.036102150948785E-3 0
4.842515050488368E-5 0
4.287833461731667E-3 0
-1.5075455914813549E-3 0
3.47249672662921E-3 0
-7.263449627658846E-3 0
-4.237095534916176E-3 0
7.163927178106229E-3 0
-5.595861346366987E-3 0
1.0478764154571042E-2 0
1.9367799216526303E-3 0
2.3289082395391595E-3 0
1.0005416363457443E-2 0
-5.746833594366599E-3 0
6.940558367688162E-3 0
-5.0291808819510845E-3 0
-5.755842710340198E-3 0
-1.5215278075747071E-3 0
-5.600276871178637E-3 0
-4.6334476856551374E-3 0
2.404103935668117E-3 0
6.249339913241797E-3 0
-8.529184297991226E-3 0
-7.266287848460318E-3 0
-8.624542718236549E-3 0
6.615195232836479E-3 0
2.0805414931644043E-3 0
-4.008425840493721E-3 0
-5.186287007747431E-3 0
-4.1471991113834747E-4 0
4.366319194488323E-3 0
-1.4739986352669044E-4 0
-4.999650681340918E-4 0
4.344788820187749E-4 0
6.481728583154509E-5 0
3.982291367195646E-4 0
9.141285283176705E-4 0
9.975839846952071E-4 0
5.637631582261122E-4 0
2.681333812473287E-4 0
6.657098863789508E-4 0
-4.723135661024275E-4 0
9.307661745522629E-5 0
3.419002846823185E-3 0
-1.1670400595335782E-3 0
4.093537997668892E-3 0
-2.521858273861924E-4 0
-2.06612555054501E-3 0
-1.0065333760184822E-3 0
4.8864906907935907E-1 0
-6.63259960829779E-4 0
-2.163210799047021E-3 0
1.8720622595946914E-4 0
4.247792463615069E-3 0
-1.3697303656150027E-3 0
-4.4008132062433735E-4 0
-5.138229046610942E-3 0
-4.300666159663647E-3 0
7.18083958657358E-3 0
-5.896119237743389E-3 0
1.0500031291563384E-2 0
1.7595913160479634E-3 0
2.34712433204175E-3 0
1.0234597059869838E-2 0
-5.763139613652764E-3 0
7.4389591939430805E-3 0
-4.970718195148641E-3 0
-6.03188578890028E-3 0
-1.5963097524777398E-3 0
-5.576912836896386E-3 0
-4.926297514825638E-3 0
2.003414002463747E-3 0
6.291780908090164E-3 0
-8.646259837094206E-3 0
-6.941855815353161E-3 0
-8.748331714732412E-3 0
7.023353258172858E-3 0
2.18479618996979E-3 0
-3.8500159720239713E-3 0
-4.98433843694058E-3 0
-1.7637974400087492E-3 0
3.292049081045706E-3 0
-1.9412650565548423E-4 0
-4.8600046498399884E-4 0
4.683126072093902E-4 0
4.510032247104282E-5 0
4.1365974396678524E-4 0
8.946405472882566E-4 0
9.239966322853478E-4 0
4.401657081990678E-4 0
9.37915647865309E-5 0
4.8776132000391325E-4 0
-5.638503285173813E-4 0
4.511396772445872E-5 0
3.2647276788733714E-3 0
-1.2876244516389702E-3 0
4.1460480039511895E-3 0
-9.338297642169606E-5 0
-2.036102150948793E-3 0
-6.632599608297708E-4 0
4.8844054581702157E-1 0
-2.7618623062579465E-4 0
-2.42403630394759E-3 0
4.1346235264914715E-4 0
4.354898318271911E-3 0
-6.167786076298442E-3 0
-3.608718984705813E-4 0
-5.0745133856061895E-3 0
-4.429047106973745E-3 0
7.293847746141865E-3 0
-6.185260424720928E-3 0
1.0721344708320767E-2 0
1.7866363939387886E-3 0
2.4769388914573837E-3 0
1.0767692049868167E-2 0
-5.753087503690161E-3 0
7.5698784108416866E-3 0
-5.743624892638065E-3 0
-6.02456125949571E-3 0
-1.5793858160913713E-3 0
-5.825353296858796E-3 0
-4.702508785563898E-3 0
1.9354584653120171E-3 0
6.582472775590967E-3 0
-8.762139391330272E-3 0
-6.422808588859681E-3 0
-9.02924383480616E-3 0
7.534511611821244E-3 0
2.165333181945357E-3 0
-3.847745471843343E-3 0
6.004048207309621E-3 0
-1.405037553185461E-3 0
3.406657785561005E-3 0
-1.9864608356657239E-4 0
-5.153493273119768E-4 0
5.188048313686863E-4 0
4.470603624698045E-6 0
3.8833859462014957E-4 0
8.696816716164603E-4 0
8.586291790185829E-4 0
3.264388276268232E-4 0
-4.2756464586945183E-5 0
4.352740001201281E-4 0
-4.838446999988149E-4 0
-9.438845864765517E-7 0
3.2810417114529644E-3 0
-1.3965027460782814E-3 0
4.22388380335953E-3 0
4.8425150504888606E-5 0
-2.163210799047029E-3 0
-2.761862306257935E-4 0
4.880465119341623E-1 0
1.734252064529568E-4 0
-2.661303888285602E-3 0
3.1911736493673085E-4 0
-5.174099934738221E-3 0
-4.3356858742077935E-3 0
-3.6764757491434207E-4 0
-5.07020212971013E-3 0
-4.623677744620737E-3 0
7.615916034444143E-3 0
-6.466706221803818E-3 0
1.108856993346618E-2 0
2.097847454671422E-3 0
2.57422687011819E-3 0
1.152103328079307E-2 0
-6.2337255516176065E-3 0
8.033392712895231E-3 0
-5.819143030748694E-3 0
-6.060142359750335E-3 0
-1.5504956617299792E-3 0
-5.8837026536910165E-3 0
-4.38860913691829E-3 0
2.050919592505824E-3 0
7.0073642315478385E-3 0
-9.034779271786933E-3 0
-5.761217762927927E-3 0
-9.440093893710838E-3 0
8.142509290228648E-3 0
2.2572864817784395E-3 0
-1.8254698127719756E-4 0
4.544746584516014E-3 0
-1.5651566339621367E-3 0
3.456469178943165E-3 0
-1.6877988412531116E-4 0
-5.891780386649863E-4 0
5.70331135003468E-4 0
-7.874525611061673E-6 0
3.6825775100197045E-4 0
8.699701594612176E-4 0
8.42488182717157E-4 0
2.4331354571613772E-4 0
-2.7409980916744344E-5 0
6.315697067578552E-4 0
-4.007151330772178E-4 0
-2.2615104717064473E-4 0
3.338995633526797E-3 0
-1.5179713958238003E-3 0
4.287833461731668E-3 0
1.8720622595946418E-4 0
-2.4240363039475738E-3 0
1.7342520645293691E-4 0
4.87574249037251E-1 0
4.949313889254678E-4 0
-2.40412557078207E-3 0
3.6474191790994985E-3 0
-3.976895012060978E-3 0
-4.274794481567406E-3 0
-2.584522119519753E-4 0
-4.982395324175209E-3 0
-4.902891727777376E-3 0
8.147881599560446E-3 0
-6.713199121831115E-3 0
1.1436094676916383E-2 0
2.56045909528045E-3 0
2.5815140573205077E-3 0
1.2080849079532526E-2 0
-7.289341451495806E-3 0
8.248120073383061E-3 0
-5.878816165184528E-3 0
-6.616226424471736E-3 0
-9.588005543722497E-4 0
-5.657101681755114E-3 0
-4.026601091862323E-3 0
2.1747445883095583E-3 0
7.529952224397392E-3 0
-9.441556677884934E-3 0
-5.326717867085899E-3 0
-9.360207396841009E-3 0
8.216199637559788E-3 0
-2.199792310191005E-3 0
-2.3054739761103578E-4 0
4.697571217199553E-3 0
-1.5185476649612413E-3 0
3.3396521048855835E-3 0
-4.9923839838098055E-5 0
-7.013000240651309E-4 0
5.54207204018641E-4 0
3.066580967923909E-5 0
3.674720012701014E-4 0
9.133955140709505E-4 0
8.644161848378916E-4 0
3.64732199559414E-4 0
1.3788381665076998E-4 0
4.915307909982306E-4 0
-5.432988734115023E-4 0
-3.7476417069583684E-4 0
3.466250475034674E-3 0
-1.5075455914813464E-3 0
4.247792463615053E-3 0
4.1346235264916076E-4 0
-2.661303888285625E-3 0
4.949313889254926E-4 0
4.8735084560539055E-1 0
-1.5819940242729917E-4 0
1.0063886397625874E-2 0
3.1726162032072E-3 0
-4.050575037801497E-3 0
-4.519272226392248E-3 0
-2.5721907832269674E-4 0
-4.769769434967956E-3 0
-5.233524308944582E-3 0
8.50782645303989E-3 0
-6.4696298923432385E-3 0
1.1310076419240382E-2 0
3.139895610428617E-3 0
1.7061368195673073E-3 0
1.2617184897201997E-2 0
-7.293809945954704E-3 0
7.3464978219448555E-3 0
-5.273554229977186E-3 0
-6.464970231952912E-3 0
-4.727383210057003E-4 0
-5.1928536225402805E-3 0
-3.8530835133266717E-3 0
2.163673308587385E-3 0
8.141566155362451E-3 0
-9.360554801101994E-3 0
-5.912161318292539E-3 0
-9.138386595539434E-3 0
-1.4269759491464403E-3 0
-1.6816770380688934E-3 0
-1.515324099174207E-4 0
4.601623331061626E-3 0
-1.2763819689832095E-3 0
3.2676740243680886E-3 0
3.994894847677466E-5 0
-6.876734521110014E-4 0
5.317268769357519E-4 0
6.039346202388846E-5 0
3.8137122588996E-4 0
8.730106934019303E-4 0
9.659372619048697E-4 0
5.306669410082592E-4 0
1.3469863740474288E-4 0
4.570740205026903E-4 0
-5.345640245061889E-4 0
-2.9360240957524586E-4 0
3.472496726629201E-3 0
-1.369730365614996E-3 0
4.354898318271898E-3 0
3.191173649367362E-4 0
-2.4041255707820844E-3 0
-1.5819940242728044E-4 0
4.874716213898329E-1 0
-1.1663754112186278E-2 0
7.081482220104527E-3 0
3.3522242412902274E-3 0
-4.013718327342775E-3 0
-4.710231939418091E-3 0
-4.378101210786094E-4 0
-5.026348245190755E-3 0
-5.102056152068254E-3 0
8.064306354403354E-3 0
-5.976914896410592E-3 0
1.1216004942077145E-2 0
3.3981330853463136E-3 0
2.290293376553787E-3 0
1.2436495335497358E-2 0
-6.528899356256314E-3 0
6.85211598796886E-3 0
-4.782758409698892E-3 0
-6.141882129185533E-3 0
-4.1547970129587663E-4 0
-4.984115538123643E-3 0
-3.8477117823728455E-3 0
2.2569839138401456E-3 0
8.21596731218055E-3 0
-9.138489276237166E-3 0
-7.007350684147108E-3 0
-1.3176059850838686E-2 0
-1.0624654986952876E-2 0
9.2318235674838E-3 0
4.185450557009941E-3 0
-5.393452182341706E-3 0
-6.0639327370115735E-3 0
-4.837201474207581E-4 0
-7.2469644473797746E-3 0
-5.923703341548456E-3 0
9.387895319950018E-3 0
-7.641238543541964E-3 0
1.4319419184943035E-2 0
4.0209177812449886E-3 0
4.020917781245057E-3 0
1.4319400610578447E-2 0
-7.641154203420099E-3 0
9.387055090085682E-3 0
-5.9190591526607035E-3 0
-7.263449627658832E-3 0
-4.400813206243309E-4 0
-6.167786076298444E-3 0
-5.174099934738223E-3 0
3.6474191790995046E-3 0
1.0063886397625873E-2 0
-1.1663754112186281E-2 0
6.19177016775507E-1 0
-9.421738647290715E-3 0
1.3050075953835885E-2 0
2.58329952262297E-3 0
-3.5441020194728744E-2 0
1.8810984043869643E-2 0
-2.6554725901162982E-2 0
3.447561872605777E-3 0
5.8691593283979005E-3 0
-4.680404978843033E-3 0
6.974552160928189E-4 0
-1.9921997630696123E-3 0
-6.736891636494892E-3 0
-6.736891636494647E-3 0
-1.9653723398436484E-3 0
5.756406507981408E-4 0
-4.375490847615265E-3 0
5.282717339273789E-3 0
4.425670915182922E-3 0
-2.803587051130195E-2 0
2.0844097633991976E-2 0
-3.786975090946652E-2 0
4.7091129942481965E-3 0
1.202357850526348E-2 0
-9.746020613202502E-3 0
-1.0624654986952324E-2 0
-6.973163876403474E-3 0
-7.724520496057437E-3 0
6.704173039340916E-3 0
2.9976202743489887E-3 0
-4.007037197354228E-3 0
-4.58424792552985E-3 0
-5.744425234216626E-4 0
-5.590691634948897E-3 0
-4.713018991997508E-3 0
6.394206956324785E-3 0
-5.749551999992789E-3 0
1.108649634691916E-2 0
2.8745916187079266E-3 0
2.7996674417910972E-3 0
1.0676795142792534E-2 0
-5.331530340644346E-3 0
7.090367082593634E-3 0
-4.237095534916175E-3 0
-5.138229046610942E-3 0
-3.6087189847057227E-4 0
-4.3356858742078005E-3 0
-3.9768950120609835E-3 0
3.1726162032072024E-3 0
7.081482220104516E-3 0
-9.421738647290717E-3 0
5.632490149787848E-1 0
-6.835884949834715E-3 0
9.573549913375744E-3 0
1.9513967461946308E-3 0
-2.5740919597517734E-2 0
1.380687382499891E-2 0
-1.933934128696227E-2 0
2.563372560767639E-3 0
4.315087027536619E-3 0
-3.434536009406531E-3 0
4.683008906957156E-4 0
-1.589352883623569E-3 0
-4.3150594378836594E-3 0
-4.0595037082140255E-3 0
-1.2649966229789863E-3 0
3.6970688864986813E-4 0
-3.143257592722422E-3 0
3.506948813480679E-3 0
3.55034051224651E-3 0
-2.1260507898748057E-2 0
1.619315119371415E-2 0
-2.8973837334724896E-2 0
4.4773159757732E-3 0
8.903465298734436E-3 0
9.231823567482964E-3 0
-7.724610289809145E-3 0
-7.01245071047935E-3 0
-7.77595441318323E-3 0
6.634433101205865E-3 0
2.894349350473469E-3 0
-4.168415372895639E-3 0
-4.8284692385237105E-3 0
-9.284977397241923E-4 0
-6.021980578265939E-3 0
-5.066064178288855E-3 0
6.463791111004744E-3 0
-5.8318641862653686E-3 0
1.107614374477241E-2 0
2.780640702335756E-3 0
2.8148904754207705E-3 0
1.0689968286396276E-2 0
-5.350553961867839E-3 0
7.163927178106232E-3 0
-4.300666159663642E-3 0
-5.074513385606187E-3 0
-3.6764757491433773E-4 0
-4.2747944815674024E-3 0
-4.050575037801508E-3 0
3.3522242412902256E-3 0
1.3050075953835864E-2 0
-6.835884949834653E-3 0
5.633170450182425E-1 0
-6.753817601355958E-3 0
9.662786439154011E-3 0
2.0385773734288414E-3 0
-2.566419711108096E-2 0
1.3868730393309745E-2 0
-1.9276180214644504E-2 0
2.6282868295655504E-3 0
4.430658868379742E-3 0
-3.481441191998428E-3 0
3.818569612601391E-4 0
-1.4544890892549073E-3 0
-4.06729734803036E-3 0
-4.139313040318541E-3 0
-1.1397620773059866E-3 0
3.347704514410849E-4 0
-3.0408990908110016E-3 0
3.237279913519617E-3 0
3.9182071782767796E-3 0
-2.2082762892212462E-2 0
1.7369720716415543E-2 0
-2.9943318787284717E-2 0
3.8265126068589474E-3 0
4.1854505570107356E-3 0
6.703936375268009E-3 0
-7.776306999714371E-3 0
-7.074911832480398E-3 0
-7.855629612865905E-3 0
6.522140257869968E-3 0
2.725533088800813E-3 0
-4.415195082141877E-3 0
-5.180258592714152E-3 0
-1.3359794988265067E-3 0
-6.5565905128941076E-3 0
-5.250508463430335E-3 0
6.994312145476164E-3 0
-5.784445020517951E-3 0
1.0850938510871407E-2 0
3.1434273697788E-3 0
2.689051093446002E-3 0
1.0606875113125955E-2 0
-5.595861346366987E-3 0
7.1808395865735775E-3 0
-4.429047106973735E-3 0
-5.070202129710121E-3 0
-2.584522119519783E-4 0
-4.51927222639225E-3 0
-4.013718327342771E-3 0
2.583299522622987E-3 0
9.573549913375752E-3 0
-6.753817601355897E-3 0
5.634091085370824E-1 0
-6.657891039809412E-3 0
9.753522637008613E-3 0
2.1138536555194453E-3 0
-2.5614973814059812E-2 0
1.38863899795339E-2 0
-1.9322933619048504E-2 0
2.6099770585615847E-3 0
4.161950208295081E-3 0
-3.919901551380039E-3 0
6.495668552551236E-4 0
-1.2580361463407528E-3 0
-3.939148407704801E-3 0
-3.8735156130618475E-3 0
-1.0594324587377092E-3 0
3.4534341872674416E-4 0
-3.1063086239360867E-3 0
3.117026495804257E-3 0
4.022415059555572E-3 0
-2.2513993864777496E-2 0
1.712573021805794E-2 0
-2.9047923461703276E-2 0
-5.393452182342248E-3 0
2.997350090572307E-3 0
6.6334956211635205E-3 0
-7.857064009335262E-3 0
-7.168878968382471E-3 0
-7.973422070443114E-3 0
6.362514699487975E-3 0
2.5095155564601526E-3 0
-4.708681574532807E-3 0
-5.491822136865189E-3 0
-1.5864217521684312E-3 0
-6.194748126736103E-3 0
-5.03248396524027E-3 0
6.942919313392482E-3 0
-5.364501344137326E-3 0
1.0717690514375725E-2 0
2.748216413343281E-3 0
2.3053340566537646E-3 0
1.047876415457104E-2 0
-5.896119237743386E-3 0
7.293847746141871E-3 0
-4.623677744620733E-3 0
-4.982395324175202E-3 0
-2.5721907832269066E-4 0
-4.710231939418088E-3 0
-3.544102019472874E-2 0
1.951396746194616E-3 0
9.662786439154027E-3 0
-6.657891039809426E-3 0
5.635090591698664E-1 0
-6.557176267406286E-3 0
9.849193091708919E-3 0
2.191221382951389E-3 0
-2.5588762811581504E-2 0
1.3807093015940063E-2 0
-1.9708775246141435E-2 0
2.0525305709655217E-3 0
4.301392993097448E-3 0
-3.6412284908617855E-3 0
9.015961555288745E-4 0
-8.895514827588148E-4 0
-3.775907316701896E-3 0
-3.8745999739328075E-3 0
-1.216144914591593E-3 0
3.7649701213663815E-4 0
-3.3341873631192935E-3 0
3.3351785699735834E-3 0
3.819430515986886E-3 0
-2.1646550387021252E-2 0
1.5506543825017665E-2 0
-6.063932737011377E-3 0
-4.007023650966236E-3 0
2.8926826303131265E-3 0
6.517550395289147E-3 0
-7.978952531553958E-3 0
-7.299152062545715E-3 0
-8.122100062015693E-3 0
6.189398549177894E-3 0
2.298840055017705E-3 0
-4.904961934289319E-3 0
-5.649386255500722E-3 0
-1.4304893122022626E-3 0
-6.371469300574345E-3 0
-5.152327473274714E-3 0
6.819154487083661E-3 0
-5.19662653304539E-3 0
1.0362791710669996E-2 0
2.4796153486337717E-3 0
1.9367799216526377E-3 0
1.0500031291563391E-2 0
-6.185260424720931E-3 0
7.6159160344441475E-3 0
-4.902891727777371E-3 0
-4.769769434967957E-3 0
-4.3781012107860565E-4 0
1.881098404386964E-2 0
-2.574091959751774E-2 0
2.0385773734287894E-3 0
9.753522637008622E-3 0
-6.5571762674062764E-3 0
5.636345443838345E-1 0
-6.392433661818556E-3 0
1.0049388709115053E-2 0
2.373731650139354E-3 0
-2.5503098016744514E-2 0
1.3776816052561595E-2 0
-1.961855002228031E-2 0
2.2070366811058717E-3 0
4.071434674510839E-3 0
-3.681020383094653E-3 0
4.930887428117265E-4 0
-1.3487640319449952E-3 0
-4.111119893331429E-3 0
-4.036462250238633E-3 0
-1.4653768875747407E-3 0
5.354139604264395E-4 0
-3.703949611906897E-3 0
3.864175700906271E-3 0
2.882706339084838E-3 0
-2.0874108118465247E-2 0
-4.837201474206987E-4 0
-4.5840011188694515E-3 0
-4.171502211703618E-3 0
2.715501962673717E-3 0
6.346562564527588E-3 0
-8.135962869670362E-3 0
-7.4452134412073675E-3 0
-8.257747409739532E-3 0
6.06568160134506E-3 0
2.237523522176345E-3 0
-5.002452615122778E-3 0
-5.526598319451921E-3 0
-1.3495859992647499E-3 0
-6.447291701979086E-3 0
-4.597188328094616E-3 0
6.969969243440053E-3 0
-5.482813659993544E-3 0
1.0049114687239617E-2 0
2.328908239539166E-3 0
1.7595913160479634E-3 0
1.0721344708320762E-2 0
-6.466706221803818E-3 0
8.147881599560446E-3 0
-5.233524308944583E-3 0
-5.026348245190754E-3 0
-2.6554725901162972E-2 0
1.380687382499892E-2 0
-2.5664197111080943E-2 0
2.113853655519438E-3 0
9.849193091708902E-3 0
-6.39243366181859E-3 0
5.639260154117199E-1 0
-5.9464007882271E-3 0
1.0583833986926895E-2 0
2.8541871625703628E-3 0
-2.5338382082345512E-2 0
1.3679442826635458E-2 0
-2.08559152388492E-2 0
1.9182868059451179E-3 0
3.5732284701532136E-3 0
-4.134871664696585E-3 0
-2.0728807640117943E-4 0
-1.9357103882507564E-3 0
-4.48824024524488E-3 0
-4.110396913435437E-3 0
-1.582552661102618E-3 0
8.238646470224986E-4 0
-4.081664461578672E-3 0
4.656155349100852E-3 0
2.3051101841338006E-3 0
-7.246964447379992E-3 0
-5.751511346844357E-4 0
-4.835094549444612E-3 0
-4.433347310799606E-3 0
2.479861244247002E-3 0
6.15670967854869E-3 0
-8.279449542416393E-3 0
-7.549468647716105E-3 0
-8.309408349636718E-3 0
6.115166978399655E-3 0
2.484297428934904E-3 0
-4.610077635927068E-3 0
-5.661011400733623E-3 0
-1.355473355923028E-3 0
-6.047740986975393E-3 0
-4.752285716741933E-3 0
6.717894483651295E-3 0
-5.659292768205644E-3 0
1.0005416363457446E-2 0
2.347124332041754E-3 0
1.786636393938789E-3 0
1.1088569933466175E-2 0
-6.713199121831119E-3 0
8.507826453039886E-3 0
-5.102056152068255E-3 0
3.4475618726057733E-3 0
-1.933934128696227E-2 0
1.3868730393309747E-2 0
-2.56149738140598E-2 0
2.1912213829514003E-3 0
1.0049388709115046E-2 0
-5.946400788227113E-3 0
5.64707608759263E-1 0
-4.865040235554091E-3 0
1.1765982963668225E-2 0
3.503623919114692E-3 0
-2.5102179306886647E-2 0
1.4288005569641948E-2 0
-2.167318832604579E-2 0
1.049478223588067E-3 0
2.508967489256909E-3 0
-5.504277830054925E-3 0
-1.036700396323537E-3 0
-2.28984720305607E-3 0
-4.467268390161233E-3 0
-3.998181068575512E-3 0
-1.4501269265451728E-3 0
9.648757738369798E-4 0
-4.0311362442560315E-3 0
4.669739519543055E-3 0
-5.923703341548208E-3 0
-5.596075678653146E-3 0
-9.440407233049401E-4 0
-5.211160366321414E-3 0
-4.752384881475737E-3 0
2.2520437624224273E-3 0
6.0285697603054385E-3 0
-8.325188770869156E-3 0
-7.545612503297937E-3 0
-8.29070596701284E-3 0
6.214490970985549E-3 0
2.2226627342716195E-3 0
-5.249293177171334E-3 0
-5.4179657834034466E-3 0
-9.645237658527622E-4 0
-5.7646692174140165E-3 0
-4.570335589130605E-3 0
6.80745219772098E-3 0
-5.746833594366588E-3 0
1.0234597059869843E-2 0
2.476938891457376E-3 0
2.097847454671422E-3 0
1.1436094676916392E-2 0
-6.4696298923432385E-3 0
8.064306354403361E-3 0
5.869159328397891E-3 0
2.5633725607676454E-3 0
-1.927618021464451E-2 0
1.388638997953389E-2 0
-2.5588762811581494E-2 0
2.373731650139361E-3 0
1.0583833986926899E-2 0
-4.865040235554113E-3 0
5.66427065329596E-1 0
-2.7237728739796046E-3 0
1.4109864184453145E-2 0
5.047630459137327E-3 0
-2.654848303389286E-2 0
1.3177906680505627E-2 0
-2.266445313646781E-2 0
-1.7673872909593701E-3 0
5.455096814854456E-4 0
-6.288798183866947E-3 0
-1.0101679458060999E-3 0
-1.9903059551791592E-3 0
-4.064400800795338E-3 0
-3.8473467348692962E-3 0
-1.2703738445812695E-3 0
7.657716199655647E-4 0
-3.813315332919667E-3 0
9.387895319949838E-3 0
-4.724559035909862E-3 0
-6.0477965186490545E-3 0
-1.3824759870454551E-3 0
-5.54987686461939E-3 0
-4.959248577235205E-3 0
2.197211644283539E-3 0
6.107390244606768E-3 0
-8.256135692669928E-3 0
-7.642886356195569E-3 0
-8.499723105794567E-3 0
5.708133968439433E-3 0
2.09104239493145E-3 0
-4.771262116754961E-3 0
-4.807866865822297E-3 0
-7.039542701538466E-4 0
-5.4221259373952784E-3 0
-4.7007285401155004E-3 0
6.940558367688169E-3 0
-5.763139613652762E-3 0
1.0767692049868171E-2 0
2.5742268701181917E-3 0
2.560459095280443E-3 0
1.1310076419240377E-2 0
-5.9769148964106E-3 0
-4.680404978843025E-3 0
4.3150870275366175E-3 0
2.6282868295655535E-3 0
-1.9322933619048504E-2 0
1.3807093015940058E-2 0
-2.5503098016744528E-2 0
2.8541871625703584E-3 0
1.1765982963668223E-2 0
-2.723772873979589E-3 0
5.693014165156735E-1 0
1.765721992626531E-5 0
1.4701870174630198E-2 0
4.271074620599028E-3 0
-2.7762758610774024E-2 0
1.0112634075788012E-2 0
-2.50007952038534E-2 0
-2.736039100006711E-3 0
5.495276892143944E-4 0
-5.5273847071866476E-3 0
-1.6003167390664074E-4 0
-1.4090827695186112E-3 0
-3.7264365240471517E-3 0
-3.8750244685703443E-3 0
-1.2252995282986752E-3 0
5.76231036402364E-4 0
-7.641238543541889E-3 0
6.373611100442662E-3 0
-5.089562663500324E-3 0
-6.611370346254211E-3 0
-1.6808246173611176E-3 0
-5.691796928661823E-3 0
-5.03742994322736E-3 0
2.4862013778696574E-3 0
6.391402777821929E-3 0
-8.332564950219083E-3 0
-8.05966158379151E-3 0
-9.385249634957444E-3 0
5.496303367972615E-3 0
2.765514432357098E-3 0
-3.935120000306094E-3 0
-4.646470578802943E-3 0
-9.257332455987524E-4 0
-5.795288520308856E-3 0
-5.029180881951081E-3 0
7.438959193943081E-3 0
-5.753087503690166E-3 0
1.1521033280793064E-2 0
2.581514057320505E-3 0
3.139895610428627E-3 0
1.121600494207715E-2 0
6.974552160928169E-4 0
-3.4345360094065265E-3 0
4.430658868379739E-3 0
2.6099770585615856E-3 0
-1.9708775246141428E-2 0
1.3776816052561595E-2 0
-2.533838208234551E-2 0
3.5036239191146962E-3 0
1.4109864184453154E-2 0
1.7657219926249135E-5 0
5.734556372230617E-1 0
2.3778989283293754E-3 0
1.4683928099656657E-2 0
3.5731706584685163E-3 0
-3.046263248680684E-2 0
6.320616075275978E-3 0
-2.5016377087846934E-2 0
-1.7430602653195502E-3 0
2.485637302583111E-3 0
-4.122449148385932E-3 0
4.957063987188973E-4 0
-9.020520096621113E-4 0
-3.90970817010332E-3 0
-4.176586279017237E-3 0
-1.3625847736648386E-3 0
1.4319419184943023E-2 0
-5.753111462437682E-3 0
6.477127008325318E-3 0
-5.2676661841357724E-3 0
-6.318018146251998E-3 0
-1.4866379571499666E-3 0
-5.59355015889439E-3 0
-4.64098573684253E-3 0
2.5523889279578495E-3 0
6.120156182052584E-3 0
-8.854404684068415E-3 0
-9.006284775219878E-3 0
-1.0412211768687686E-2 0
5.923860165731855E-3 0
2.634590927608612E-3 0
-4.48700738564039E-3 0
-5.153974452602191E-3 0
-1.4359497985846016E-3 0
-5.755842710340203E-3 0
-4.970718195148645E-3 0
7.569878410841689E-3 0
-6.233725551617609E-3 0
1.2080849079532526E-2 0
1.7061368195672934E-3 0
3.398133085346307E-3 0
-1.992199763069618E-3 0
4.6830089069571434E-4 0
-3.481441191998428E-3 0
4.1619502082950776E-3 0
2.0525305709655135E-3 0
-1.961855002228031E-2 0
1.3679442826635461E-2 0
-2.5102179306886633E-2 0
5.047630459137339E-3 0
1.4701870174630205E-2 0
2.3778989283293494E-3 0
5.733116821077198E-1 0
2.3013858053703388E-4 0
1.5375894202536647E-2 0
5.973912077182085E-4 0
-3.048638861223837E-2 0
1.0173047942166393E-2 0
-2.2767459302107707E-2 0
1.186095881936593E-3 0
3.4278886555286505E-3 0
-3.557924837408444E-3 0
8.190431423006232E-4 0
-1.195243325084527E-3 0
-4.1363385567974205E-3 0
-4.230588453286909E-3 0
4.0209177812449756E-3 0
1.1096587007230279E-2 0
-5.8090781257459445E-3 0
7.004958672949974E-3 0
-5.097739516274445E-3 0
-6.415317630184825E-3 0
-1.4034568795748483E-3 0
-5.6934242688790925E-3 0
-5.050410768570348E-3 0
2.3755934549928746E-3 0
6.0143650945451155E-3 0
-1.0019175145588173E-2 0
-1.0346019493870815E-2 0
-1.1005734556762167E-2 0
5.526591311944717E-3 0
2.2666698828162544E-3 0
-5.1055931017060276E-3 0
-5.513032450945549E-3 0
-1.521527807574703E-3 0
-6.031885788900278E-3 0
-5.743624892638065E-3 0
8.033392712895228E-3 0
-7.289341451495809E-3 0
1.2617184897202E-2 0
2.290293376553782E-3 0
-6.73689163649489E-3 0
-1.5893528836235654E-3 0
3.818569612601415E-4 0
-3.919901551380041E-3 0
4.3013929930974465E-3 0
2.2070366811058717E-3 0
-2.0855915238849203E-2 0
1.4288005569641968E-2 0
-2.6548483033892872E-2 0
4.271074620599027E-3 0
1.468392809965665E-2 0
2.3013858053701946E-4 0
5.802343668398561E-1 0
1.626967740429072E-3 0
1.5364477069772736E-2 0
3.625012128773871E-3 0
-2.7888114318617475E-2 0
1.3397782829664522E-2 0
-2.1982736982376058E-2 0
2.2787731278214765E-3 0
3.7302516399412415E-3 0
-3.39791446660615E-3 0
5.274720619882018E-4 0
-1.405183917528846E-3 0
-4.56451932834741E-3 0
4.020917781245067E-3 0
2.8645009583968466E-3 0
1.105335768425294E-2 0
-5.795091547991725E-3 0
7.008174864426627E-3 0
-5.108479143664218E-3 0
-6.393420821668987E-3 0
-1.3230604877775538E-3 0
-5.616848192004419E-3 0
-5.055813176816364E-3 0
2.2474527057846005E-3 0
5.530823542632349E-3 0
-1.1005734556762172E-2 0
-1.0346019493870817E-2 0
-1.0017592912444735E-2 0
6.007180690700676E-3 0
2.3948979255237215E-3 0
-5.0938984334761616E-3 0
-5.600276871178633E-3 0
-1.596309752477733E-3 0
-6.024561259495711E-3 0
-5.819143030748695E-3 0
8.248120073383061E-3 0
-7.293809945954704E-3 0
1.243649533549736E-2 0
-6.7368916364946435E-3 0
-4.315059437883667E-3 0
-1.4544890892549136E-3 0
6.495668552551184E-4 0
-3.6412284908617894E-3 0
4.071434674510834E-3 0
1.9182868059451131E-3 0
-2.1673188326045804E-2 0
1.3177906680505643E-2 0
-2.7762758610774027E-2 0
3.5731706584685103E-3 0
1.5375894202536636E-2 0
1.626967740429045E-3 0
5.802343668398561E-1 0
2.469609046242799E-4 0
1.460754342123772E-2 0
4.4575222081603095E-3 0
-2.688420998307389E-2 0
1.4784690675019621E-2 0
-2.14822074463228E-2 0
2.8707619550959428E-3 0
3.7503695828491803E-3 0
-3.6426911986925745E-3 0
3.8121268611013856E-4 0
-1.7288930987041685E-3 0
1.431940061057844E-2 0
2.80322638128473E-3 0
2.767304562343429E-3 0
1.086809583281068E-2 0
-5.241232000096219E-3 0
6.875304105233279E-3 0
-4.53023583037987E-3 0
-6.01683296601935E-3 0
-1.294248831699575E-3 0
-5.219889774980954E-3 0
-4.465971684337385E-3 0
2.6345694936067963E-3 0
5.9196110371327266E-3 0
-1.041061263763275E-2 0
-9.005116662408406E-3 0
-8.858872620236937E-3 0
6.128771754249202E-3 0
2.5407324819833243E-3 0
-4.633447685655142E-3 0
-5.576912836896387E-3 0
-1.579385816091374E-3 0
-6.0601423597503356E-3 0
-5.878816165184535E-3 0
7.346497821944855E-3 0
-6.5288993562563164E-3 0
-1.965372339843652E-3 0
-4.059503708214031E-3 0
-4.067297348030368E-3 0
-1.2580361463407528E-3 0
9.015961555288791E-4 0
-3.6810203830946533E-3 0
3.5732284701532188E-3 0
1.0494782235880675E-3 0
-2.2664453136467796E-2 0
1.0112634075788024E-2 0
-3.046263248680682E-2 0
5.97391207718219E-4 0
1.5364477069772745E-2 0
2.46960904624289E-4 0
5.732744869691823E-1 0
2.477608821074036E-3 0
1.4486933057505435E-2 0
5.429116808896708E-3 0
-2.569372945170604E-2 0
1.4501531100516689E-2 0
-2.0629587625194276E-2 0
3.101527086485476E-3 0
3.3683764628085044E-3 0
-3.1484239602116433E-3 0
4.339840166871877E-4 0
-7.641154203420096E-3 0
1.0697393373225533E-2 0
2.8383900625253973E-3 0
3.1982090138059456E-3 0
1.0812096446678807E-2 0
-5.154220278876309E-3 0
7.0049435825452165E-3 0
-4.754189302607067E-3 0
-5.941586145400747E-3 0
-8.711092674843108E-4 0
-4.646440005803353E-3 0
-3.956065109950854E-3 0
2.784808337284951E-3 0
5.489042236231969E-3 0
-9.38982162906874E-3 0
-8.042698029675761E-3 0
-8.366095424136433E-3 0
6.446720028741151E-3 0
2.4041039356681028E-3 0
-4.926297514825648E-3 0
-5.825353296858795E-3 0
-1.5504956617299803E-3 0
-6.616226424471734E-3 0
-5.273554229977189E-3 0
6.852115987968853E-3 0
5.756406507981377E-4 0
-1.2649966229789855E-3 0
-4.139313040318544E-3 0
-3.9391484077048E-3 0
-8.895514827588115E-4 0
4.930887428117256E-4 0
-4.1348716646965895E-3 0
2.5089674892569054E-3 0
-1.7673872909593602E-3 0
-2.5000795203853395E-2 0
6.320616075275958E-3 0
-3.0486388612238385E-2 0
3.6250121287738813E-3 0
1.4607543421237722E-2 0
2.477608821074069E-3 0
5.733170158616722E-1 0
2.209548124202707E-4 0
1.3798095097775244E-2 0
4.0064991516677384E-3 0
-2.6150792924909034E-2 0
1.5004008012361843E-2 0
-2.1328670826462007E-2 0
4.273924424614619E-3 0
3.2930133986190688E-3 0
-3.185779457462524E-3 0
9.387055090085675E-3 0
-5.319996056626422E-3 0
1.0715781540593794E-2 0
2.7355431857905505E-3 0
2.806263722351735E-3 0
1.0417089066790798E-2 0
-5.442494530757379E-3 0
6.725670337633482E-3 0
-4.604893476460748E-3 0
-5.422133543206247E-3 0
-7.586442810046369E-4 0
-4.742176911089231E-3 0
-4.821221244721668E-3 0
2.110526068539345E-3 0
5.716973517316949E-3 0
-8.533181231058753E-3 0
-7.580954438647194E-3 0
-8.353627460582524E-3 0
6.249339913241824E-3 0
2.00341400246377E-3 0
-4.70250878556389E-3 0
-5.883702653691012E-3 0
-9.588005543722469E-4 0
-6.464970231952919E-3 0
-4.782758409698884E-3 0
-4.375490847615252E-3 0
3.6970688864986477E-4 0
-1.1397620773059857E-3 0
-3.87351561306184E-3 0
-3.7759073167019006E-3 0
-1.3487640319449958E-3 0
-2.0728807640116995E-4 0
-5.5042778300549225E-3 0
5.455096814854376E-4 0
-2.7360391000067178E-3 0
-2.5016377087846955E-2 0
1.0173047942166384E-2 0
-2.7888114318617478E-2 0
4.457522208160318E-3 0
1.4486933057505447E-2 0
2.2095481242028495E-4 0
5.691478513890237E-1 0
-2.619032899804115E-3 0
1.1608406268110162E-2 0
3.288452080104186E-3 0
-2.6527975971636017E-2 0
1.5669965927588816E-2 0
-2.1932361650363566E-2 0
5.1172745439446565E-3 0
3.3329452904373117E-3 0
-5.9190591526607165E-3 0
7.095761319399167E-3 0
-5.335006158329573E-3 0
1.0637784684748096E-2 0
2.349050387635943E-3 0
2.5263927116427175E-3 0
1.0086213690866408E-2 0
-5.643510794366577E-3 0
6.8074304518865834E-3 0
-4.6661450795572905E-3 0
-5.618278950664996E-3 0
-1.1058826657535917E-3 0
-5.3138672544324255E-3 0
-5.293063629989301E-3 0
2.2106664761412983E-3 0
6.26970534180843E-3 0
-8.388198541034108E-3 0
-7.399725203909307E-3 0
-8.52918429799124E-3 0
6.291780908090144E-3 0
1.9354584653120078E-3 0
-4.388609136918297E-3 0
-5.657101681755102E-3 0
-4.7273832100570346E-4 0
-6.141882129185536E-3 0
5.28271733927378E-3 0
-3.1432575927224106E-3 0
3.347704514410789E-4 0
-1.059432458737715E-3 0
-3.8745999739328023E-3 0
-4.1111198933314295E-3 0
-1.935710388250763E-3 0
-1.0367003963235339E-3 0
-6.288798183866959E-3 0
5.495276892143915E-4 0
-1.7430602653195507E-3 0
-2.276745930210771E-2 0
1.3397782829664532E-2 0
-2.6884209983073892E-2 0
5.429116808896713E-3 0
1.3798095097775236E-2 0
-2.619032899804093E-3 0
5.66618721245613E-1 0
-5.285521929911285E-3 0
1.0953204874448015E-2 0
2.5512080912103575E-3 0
-2.6871310069294208E-2 0
1.6677305066681216E-2 0
-2.2725405355421006E-2 0
4.65743800759542E-3 0
-7.263449627658802E-3 0
-4.236401596197024E-3 0
7.1705453754948465E-3 0
-5.577720388272266E-3 0
1.0508399998005836E-2 0
1.96949593629703E-3 0
2.350628802345873E-3 0
1.0005414052045688E-2 0
-5.76258329074003E-3 0
6.9327631019075455E-3 0
-5.027345192780315E-3 0
-5.787071888369625E-3 0
-1.5542437403778533E-3 0
-5.567560938375476E-3 0
-4.602218584525708E-3 0
2.4022685956750357E-3 0
6.257134329363217E-3 0
-8.513433084757258E-3 0
-7.2662878484603104E-3 0
-8.646259837094215E-3 0
6.582472775590966E-3 0
2.0509195925058283E-3 0
-4.026601091862339E-3 0
-5.192853622540284E-3 0
-4.154797012958737E-4 0
4.425670915182917E-3 0
3.5069488134806775E-3 0
-3.0408990908109934E-3 0
3.4534341872674947E-4 0
-1.2161449145915969E-3 0
-4.036462250238636E-3 0
-4.488240245244879E-3 0
-2.2898472030560848E-3 0
-1.0101679458060994E-3 0
-5.527384707186655E-3 0
2.485637302583117E-3 0
1.1860958819365987E-3 0
-2.1982736982376065E-2 0
1.4784690675019627E-2 0
-2.569372945170604E-2 0
4.006499151667725E-3 0
1.160840626811018E-2 0
-5.285521929911283E-3 0
5.657594910629312E-1 0
-7.401706277737088E-3 0
1.1351554870623469E-2 0
1.831977745339383E-3 0
-2.7105208472574846E-2 0
1.6813688614635544E-2 0
-2.245367985060104E-2 0
-4.400813206243634E-4 0
-5.138457837621933E-3 0
-4.297570272873027E-3 0
7.190884616508667E-3 0
-5.880144931927627E-3 0
1.0513861067222506E-2 0
1.7595690249776422E-3 0
2.325425531578339E-3 0
1.0197448989294932E-2 0
-5.803428425214799E-3 0
7.403907014377788E-3 0
-5.037659598300756E-3 0
-6.085623848239042E-3 0
-1.5425716931389778E-3 0
-5.509970783226412E-3 0
-4.891248289049475E-3 0
2.043709984337124E-3 0
6.3289162629125584E-3 0
-8.62454271823656E-3 0
-6.941855815353121E-3 0
-8.762139391330281E-3 0
7.007364231547844E-3 0
2.1747445883095787E-3 0
-3.8530835133266683E-3 0
-4.984115538123646E-3 0
-2.8035870511301936E-2 0
3.5503405122465064E-3 0
3.2372799135196163E-3 0
-3.1063086239360754E-3 0
3.764970121366322E-4 0
-1.4653768875747437E-3 0
-4.110396913435443E-3 0
-4.467268390161239E-3 0
-1.9903059551791558E-3 0
-1.6003167390664442E-4 0
-4.122449148385924E-3 0
3.4278886555286566E-3 0
2.2787731278214843E-3 0
-2.148220744632281E-2 0
1.4501531100516685E-2 0
-2.6150792924909044E-2 0
3.288452080104196E-3 0
1.0953204874448015E-2 0
-7.401706277737104E-3 0
5.664330548074187E-1 0
-9.502408195096713E-3 0
1.2682486595880562E-2 0
9.149576100176235E-4 0
-2.6607933122366735E-2 0
1.6054050267367483E-2 0
-6.1677860762985E-3 0
-3.609046590560544E-4 0
-5.07285669013054E-3 0
-4.424472132224314E-3 0
7.299355049910106E-3 0
-6.185226275612682E-3 0
1.0707503771485225E-2 0
1.753941386535346E-3 0
2.430177116792672E-3 0
1.0713374430398506E-2 0
-5.795151776232116E-3 0
7.514411832770452E-3 0
-5.787167460293234E-3 0
-5.9810186918405435E-3 0
-1.5239182498435347E-3 0
-5.783293511304013E-3 0
-4.648180292721321E-3 0
1.982201050418525E-3 0
6.615195232836465E-3 0
-8.748331714732412E-3 0
-6.422808588859665E-3 0
-9.034779271786914E-3 0
7.52995222439738E-3 0
2.1636733085873792E-3 0
-3.8477117823728407E-3 0
2.0844097633991976E-2 0
-2.1260507898748025E-2 0
3.918207178276785E-3 0
3.11702649580424E-3 0
-3.33418736311928E-3 0
5.354139604264353E-4 0
-1.5825526611026252E-3 0
-3.998181068575504E-3 0
-4.06440080079535E-3 0
-1.4090827695185978E-3 0
4.957063987188923E-4 0
-3.557924837408435E-3 0
3.7302516399412475E-3 0
2.870761955095939E-3 0
-2.0629587625194283E-2 0
1.5004008012361843E-2 0
-2.6527975971636017E-2 0
2.551208091210343E-3 0
1.1351554870623483E-2 0
-9.502408195096722E-3 0
5.68417271447767E-1 0
-1.2234677788688276E-2 0
1.4794159711185705E-2 0
-6.90373360164931E-4 0
-2.71441974009212E-2 0
-5.174099934738048E-3 0
-4.335397994171487E-3 0
-3.6670062653006613E-4 0
-5.068753979259247E-3 0
-4.623656225958923E-3 0
7.610357142066966E-3 0
-6.482672585814975E-3 0
1.1058929051028715E-2 0
2.054121938165007E-3 0
2.516223033590854E-3 0
1.1425981195332467E-2 0
-6.358595743722403E-3 0
7.967195424541733E-3 0
-5.752945742395193E-3 0
-5.935272865256994E-3 0
-1.4554404086436648E-3 0
-5.825706475238693E-3 0
-4.344870195133109E-3 0
2.0805414931644095E-3 0
7.0233532581728516E-3 0
-9.02924383480616E-3 0
-5.761217762927916E-3 0
-9.441556677884932E-3 0
8.141566155362474E-3 0
2.256983913840139E-3 0
-3.786975090946651E-2 0
1.6193151193714145E-2 0
-2.2082762892212476E-2 0
4.022415059555588E-3 0
3.3351785699735743E-3 0
-3.703949611906896E-3 0
8.238646470225041E-4 0
-1.4501269265451756E-3 0
-3.8473467348692962E-3 0
-3.7264365240471543E-3 0
-9.020520096621065E-4 0
8.190431423006156E-4 0
-3.3979144666061536E-3 0
3.7503695828491894E-3 0
3.101527086485473E-3 0
-2.1328670826462E-2 0
1.5669965927588805E-2 0
-2.687131006929419E-2 0
1.8319777453393725E-3 0
1.2682486595880546E-2 0
-1.223467778868827E-2 0
5.715660028357101E-1 0
-1.5610675325965733E-2 0
1.659957968819186E-2 0
1.1090115692538271E-4 0
3.6474191790991733E-3 0
-3.976672029565333E-3 0
-4.2744481075505615E-3 0
-2.5846007068831367E-4 0
-4.983844495971912E-3 0
-4.907465619028802E-3 0
8.137843378081332E-3 0
-6.7313851306667945E-3 0
1.1405200640136273E-2 0
2.5138971988912504E-3 0
2.527382177116608E-3 0
1.2065605165762782E-2 0
-7.277437836529303E-3 0
8.236216458416561E-3 0
-5.863572628924302E-3 0
-6.562092830120425E-3 0
-9.122428231918825E-4 0
-5.626200237976016E-3 0
-4.008425840493734E-3 0
2.1847961899698E-3 0
7.534511611821259E-3 0
-9.440093893710881E-3 0
-5.326717867085875E-3 0
-9.360554801102013E-3 0
8.21596731218057E-3 0
4.709112994248213E-3 0
-2.897383733472491E-2 0
1.736972071641556E-2 0
-2.2513993864777503E-2 0
3.8194305159868843E-3 0
3.8641757009062762E-3 0
-4.081664461578667E-3 0
9.648757738369804E-4 0
-1.2703738445812623E-3 0
-3.8750244685703526E-3 0
-3.909708170103318E-3 0
-1.1952433250845287E-3 0
5.274720619882204E-4 0
-3.6426911986925836E-3 0
3.3683764628085044E-3 0
4.273924424614624E-3 0
-2.1932361650363552E-2 0
1.6677305066681213E-2 0
-2.710520847257485E-2 0
9.149576100176313E-4 0
1.4794159711185684E-2 0
-1.5610675325965682E-2 0
5.752778891253764E-1 0
-1.800923932409822E-2 0
1.4656083849161812E-2 0
1.0063886397626216E-2 0
3.172714070180304E-3 0
-4.0505736758182235E-3 0
-4.519625790809967E-3 0
-2.581527283046493E-4 0
-4.7714394836447785E-3 0
-5.236582570298165E-3 0
8.501252489003366E-3 0
-6.485176338644983E-3 0
1.1284305389994476E-2 0
3.116149680001908E-3 0
1.7183766459054788E-3 0
1.2639145820438624E-2 0
-7.315770869191333E-3 0
7.334257742963996E-3 0
-5.249807152382598E-3 0
-6.439201996896128E-3 0
-4.571868726475523E-4 0
-5.186287007747417E-3 0
-3.8500159720239874E-3 0
2.1653331819453735E-3 0
8.142509290228635E-3 0
-9.360207396841038E-3 0
-5.9121613182924575E-3 0
-9.1384892762372E-3 0
1.2023578505263468E-2 0
4.477315975773202E-3 0
-2.9943318787284737E-2 0
1.7125730218057928E-2 0
-2.164655038702125E-2 0
2.882706339084843E-3 0
4.656155349100848E-3 0
-4.031136244256028E-3 0
7.657716199655644E-4 0
-1.2252995282986733E-3 0
-4.176586279017239E-3 0
-4.1363385567974136E-3 0
-1.4051839175288504E-3 0
3.812126861101515E-4 0
-3.1484239602116337E-3 0
3.293013398619076E-3 0
5.117274543944644E-3 0
-2.272540535542101E-2 0
1.6813688614635523E-2 0
-2.6607933122366725E-2 0
-6.903733601649444E-4 0
1.6599579688191885E-2 0
-1.8009239324098196E-2 0
5.763338587309639E-1 0
-1.370344059244409E-2 0
-1.1663754112186498E-2 0
7.081479583167204E-3 0
3.3521300957286746E-3 0
-4.013965133507343E-3 0
-4.7105158053148775E-3 0
-4.377966962453537E-4 0
-5.026106372558312E-3 0
-5.102831381989543E-3 0
8.058633471387897E-3 0
-5.9890918147278045E-3 0
1.1194287636970862E-2 0
3.394611773531938E-3 0
2.3011521260995374E-3 0
1.242563658595161E-2 0
-6.52537859431554E-3 0
6.873835789871524E-3 0
-4.770587548287605E-3 0
-6.136198525056467E-3 0
-4.147199111383572E-4 0
-4.984338436940572E-3 0
-3.847745471843352E-3 0
2.257286481778438E-3 0
8.216199637559795E-3 0
-9.138386595539425E-3 0
-7.0073506841470895E-3 0
-9.746020613202507E-3 0
8.903465298734432E-3 0
3.826512606858935E-3 0
-2.9047923461703273E-2 0
1.5506543825017665E-2 0
-2.0874108118465257E-2 0
2.3051101841338084E-3 0
4.669739519543054E-3 0
-3.813315332919675E-3 0
5.762310364023729E-4 0
-1.362584773664837E-3 0
-4.230588453286905E-3 0
-4.564519328347404E-3 0
-1.7288930987041755E-3 0
4.3398401668719687E-4 0
-3.1857794574625276E-3 0
3.3329452904373247E-3 0
4.657438007595423E-3 0
-2.2453679850601045E-2 0
1.6054050267367486E-2 0
-2.714419740092121E-2 0
1.1090115692538835E-4 0
1.4656083849161831E-2 0
-1.3703440592444134E-2 0
5.739174118443585E-1 0
