%%MatrixMarket matrix array complex general
%
50 50
4.7220003342755806E-1 0
-5.232413495516644E-4 0
-1.3075391103146855E-3 0
6.689686430227715E-3 0
4.0778700329173224E-3 0
3.011608371980576E-3 0
-1.5117895483713764E-3 0
-1.0617975718520182E-3 0
3.7822617005716526E-3 0
-3.246755778967748E-3 0
6.973213054318774E-4 0
-3.238421767711961E-3 0
-8.973104950505958E-4 0
-8.973104950504529E-4 0
-3.238063754466587E-3 0
6.95695684234535E-4 0
-3.241896648858986E-3 0
3.76911339380461E-3 0
-1.028751507304974E-3 0
-1.5860714775618866E-3 0
3.1627661556526206E-3 0
3.8093275380445975E-3 0
7.10841627679006E-3 0
-1.7626401263224423E-3 0
-3.359317280137828E-4 0
-1.3753611607757487E-3 0
2.0159364882776872E-3 0
7.473724426394323E-3 0
-1.5282019739010895E-2 0
9.008829525091664E-3 0
6.408955188938083E-3 0
-2.867274976317804E-3 0
-7.150474436333668E-3 0
2.844701183314299E-3 0
-2.0153380520623143E-3 0
9.922236442330968E-3 0
-5.680125886315378E-4 0
7.518197398651365E-3 0
7.5181973986508145E-3 0
-5.754975372947413E-4 0
9.956223149142952E-3 0
-2.1013676395769555E-3 0
3.0147705549878907E-3 0
-7.451507221398149E-3 0
-2.360320274509617E-3 0
5.569627415434412E-3 0
1.0322877366313066E-2 0
-1.7144098260099626E-2 0
9.367145271620808E-3 0
1.2579652659884197E-3 0
-5.232413495516669E-4 0
4.8522814083179183E-1 0
-3.929186186469167E-4 0
-9.594043672209566E-4 0
4.871255598837661E-3 0
2.9818186937676998E-3 0
2.2200129901379165E-3 0
-1.0754989907235436E-3 0
-7.179638098365129E-4 0
2.8476971166576247E-3 0
-2.2602059453469244E-3 0
5.448829095649924E-4 0
-2.529395319512651E-3 0
-7.900083829606229E-4 0
-7.478604389029805E-4 0
-2.4120733599858266E-3 0
4.873478147756311E-4 0
-2.3865600093893563E-3 0
2.765750462428149E-3 0
-7.834868771940902E-4 0
-1.1497786010141228E-3 0
2.3022269799086465E-3 0
2.743394257932283E-3 0
5.1860513441004405E-3 0
-1.17841102890033E-3 0
2.0159364882767488E-3 0
-6.627756451670216E-4 0
1.480572262559799E-3 0
5.4626920926190885E-3 0
-1.1127424746776375E-2 0
6.54445797173665E-3 0
4.614213165798102E-3 0
-2.1973543037676325E-3 0
-5.336095020849872E-3 0
1.9430682836358334E-3 0
-1.5666430086537504E-3 0
7.306494394780583E-3 0
-2.601695682507485E-4 0
5.481669285035288E-3 0
5.0924629443078E-3 0
-4.4634875344600443E-4 0
7.344025175159423E-3 0
-1.4954139563615964E-3 0
2.3438112948307205E-3 0
-5.444474495300201E-3 0
-1.645857824595293E-3 0
3.940841152856694E-3 0
7.794313581028852E-3 0
-1.2594345386473287E-2 0
6.521043293570528E-3 0
-1.3075391103146857E-3 0
-3.9291861864691974E-4 0
4.852279287480459E-1 0
-3.9109137163047405E-4 0
-9.532196143449671E-4 0
4.88582863215208E-3 0
3.009767471067635E-3 0
2.2647005618132857E-3 0
-1.010659161143398E-3 0
-6.358834032787913E-4 0
2.9434050776139774E-3 0
-2.21940203131716E-3 0
5.334105121270378E-4 0
-2.6050554708170375E-3 0
-8.33362185464207E-4 0
-7.675795136974487E-4 0
-2.4071586797156123E-3 0
5.276838400037844E-4 0
-2.4174563380272174E-3 0
2.815951256215725E-3 0
-8.319370761669187E-4 0
-1.0863381825990117E-3 0
2.2298951624196983E-3 0
2.9088113270815206E-3 0
5.169779732332536E-3 0
7.473724426395587E-3 0
1.4813178359185132E-3 0
-6.682781951894084E-4 0
1.473706349549755E-3 0
5.4503529398759135E-3 0
-1.1154372974230019E-2 0
6.48765747106402E-3 0
4.510995696676702E-3 0
-2.367526690684888E-3 0
-5.551005892619901E-3 0
1.7072397283475471E-3 0
-1.580120045921695E-3 0
7.850276855915331E-3 0
-2.702233572109947E-4 0
5.275577016602779E-3 0
5.281052943168392E-3 0
-4.3074351037901664E-4 0
7.35830919883244E-3 0
-1.5862925506831102E-3 0
2.3504091082392083E-3 0
-5.469163112266562E-3 0
-1.7258707188547663E-3 0
4.062319502097022E-3 0
7.361677051879636E-3 0
-1.212743877979957E-2 0
6.689686430227711E-3 0
-9.594043672209576E-4 0
-3.9109137163044814E-4 0
4.8523230038678056E-1 0
-3.818858573354897E-4 0
-9.342541446122858E-4 0
4.920684538852862E-3 0
3.0637574429901696E-3 0
2.3350113543771614E-3 0
-9.377051844496328E-4 0
-5.351373531849547E-4 0
2.971119747132981E-3 0
-2.4565002882348E-3 0
4.1128588416762844E-4 0
-2.5320616088641123E-3 0
-8.064834402966658E-4 0
-6.623828538545293E-4 0
-2.3945400056868027E-3 0
5.961904534160275E-4 0
-2.4512240477467576E-3 0
2.8922776641497846E-3 0
-8.816054295431157E-4 0
-1.0456740004911327E-3 0
2.200682785331307E-3 0
3.121333113408575E-3 0
-1.5282019739012047E-2 0
5.465036131014926E-3 0
1.4763678489943366E-3 0
-6.729580965913661E-4 0
1.4642631274702361E-3 0
5.42583967310623E-3 0
-1.120859156556232E-2 0
6.392917539509687E-3 0
4.358534597942496E-3 0
-2.5467327012074895E-3 0
-5.704672246934892E-3 0
1.9240347397446816E-3 0
-1.303442939906926E-3 0
7.87536152712642E-3 0
-1.7823874402158747E-4 0
5.239293358939161E-3 0
5.089348711772617E-3 0
-6.604913954366111E-4 0
7.283808441283364E-3 0
-1.7468649282231376E-3 0
2.363615270161078E-3 0
-5.481904485928632E-3 0
-1.9108694402468352E-3 0
4.590277495035435E-3 0
6.934648900040819E-3 0
4.077870032917329E-3 0
4.871255598837654E-3 0
-9.532196143449685E-4 0
-3.8188585733547995E-4 0
4.8524585905195017E-1 0
-3.5998134205019415E-4 0
-8.981475568439803E-4 0
4.975831669827584E-3 0
3.1373843083696046E-3 0
2.4137314415572605E-3 0
-8.991773117449867E-4 0
-5.798348787894772E-4 0
3.0200214903654612E-3 0
-2.550269166872144E-3 0
4.0277428299321394E-4 0
-2.405535561242422E-3 0
-7.295997319043989E-4 0
-5.930332764672197E-4 0
-2.3929289862228142E-3 0
6.919874286673918E-4 0
-2.509348560789392E-3 0
2.999130681103849E-3 0
-9.518339585969753E-4 0
-1.0408771707100248E-3 0
2.315935496090319E-3 0
9.00882952509254E-3 0
-1.1123461619189645E-2 0
5.456409729247904E-3 0
1.46913983980444E-3 0
-6.828498115170121E-4 0
1.4420027099939603E-3 0
5.379313516111708E-3 0
-1.1283089991080093E-2 0
6.292946808556534E-3 0
4.288194358292938E-3 0
-2.6545270740514046E-3 0
-5.545320397388177E-3 0
2.2480431590655766E-3 0
-1.4498667861146616E-3 0
7.522872962829661E-3 0
-1.8717400547966945E-4 0
4.856617338382319E-3 0
4.883675858616505E-3 0
-9.310685138480427E-4 0
7.293263760757286E-3 0
-1.965831925063808E-3 0
2.5346412780588956E-3 0
-5.64464832691106E-3 0
-1.8693772058349489E-3 0
4.858967198541075E-3 0
3.0116083719805746E-3 0
2.981818693767705E-3 0
4.885828632152077E-3 0
-9.34254144612289E-4 0
-3.5998134205018385E-4 0
4.852694518909718E-1 0
-3.3399674719959265E-4 0
-8.650270221680436E-4 0
5.0318134275503055E-3 0
3.223876558533934E-3 0
2.512117669816426E-3 0
-8.546561513152829E-4 0
-6.829797358483205E-4 0
2.939233301007753E-3 0
-2.4515532498417744E-3 0
3.482321632263223E-4 0
-2.393071521551904E-3 0
-6.800031586891055E-4 0
-4.8242840864117165E-4 0
-2.3917730023978734E-3 0
8.015373772170959E-4 0
-2.64545756567949E-3 0
3.1692502736667275E-3 0
-1.1322143382889276E-3 0
-1.0253332568255925E-3 0
6.4089551889375445E-3 0
6.548628315056662E-3 0
-1.114648017158332E-2 0
5.435673591008543E-3 0
1.4498506457269393E-3 0
-7.083367438311396E-4 0
1.4012912577020863E-3 0
5.322723901071807E-3 0
-1.13385978506056E-2 0
6.298839113066184E-3 0
4.37755673466584E-3 0
-2.3058980972361282E-3 0
-5.5825924471097944E-3 0
2.174470569581061E-3 0
-1.4011924828188106E-3 0
7.253142741969943E-3 0
-5.445063410573987E-4 0
4.603071819992554E-3 0
4.784131443746213E-3 0
-1.130262337169547E-3 0
7.40571788804595E-3 0
-2.2133351587785483E-3 0
2.880342145311331E-3 0
-5.956574069130377E-3 0
-1.8731758242616634E-3 0
-1.5117895483713793E-3 0
2.220012990137904E-3 0
3.009767471067628E-3 0
4.920684538852857E-3 0
-8.981475568439918E-4 0
-3.339967471995837E-4 0
4.8527201996930375E-1 0
-3.601675186565094E-4 0
-8.927221302851612E-4 0
5.0336466724547335E-3 0
3.292758344373025E-3 0
2.4742724969257688E-3 0
-1.0107466421854984E-3 0
-6.633886016664494E-4 0
2.7235372844321222E-3 0
-2.489384414905123E-3 0
4.962937352565491E-4 0
-2.202838886654442E-3 0
-5.563733459420533E-4 0
-4.108566293441733E-4 0
-2.4373685153875725E-3 0
8.618499014707089E-4 0
-2.804316844032872E-3 0
3.2502185533067156E-3 0
-1.060133320313041E-3 0
-2.8672749763175016E-3 0
4.615512026647828E-3 0
6.492755557617772E-3 0
-1.119727596559958E-2 0
5.395306707195626E-3 0
1.4141929872844622E-3 0
-7.462284478707107E-4 0
1.3637450128174023E-3 0
5.298419677913568E-3 0
-1.1319649159631415E-2 0
6.532088275082907E-3 0
4.713711792678665E-3 0
-2.2533294351881486E-3 0
-5.5095937040937045E-3 0
2.0154780811218716E-3 0
-1.5103593079277835E-3 0
7.155720821930518E-3 0
-6.562549893625276E-4 0
4.466353406863478E-3 0
4.756712616165025E-3 0
-1.2309043870438719E-3 0
7.5779968124449724E-3 0
-2.3437684095909904E-3 0
2.958876500859767E-3 0
-5.827856778156217E-3 0
-1.061797571852018E-3 0
-1.0754989907235358E-3 0
2.264700561813296E-3 0
3.0637574429901704E-3 0
4.975831669827579E-3 0
-8.650270221680672E-4 0
-3.601675186565235E-4 0
4.85155595465626E-1 0
-5.511531076541486E-4 0
-1.1122608837551278E-3 0
4.918577074609846E-3 0
3.1536314769795314E-3 0
2.5401178473018976E-3 0
-8.750170488448206E-4 0
-6.074646009892092E-4 0
2.920406420322565E-3 0
-2.0587051787862992E-3 0
8.128542692646984E-4 0
-2.083053369237442E-3 0
-5.425159809282143E-4 0
-4.660743401744253E-4 0
-2.501202361260947E-3 0
8.645785435955841E-4 0
-2.7783902859431007E-3 0
3.1062368645489963E-3 0
-7.150474436333868E-3 0
-2.202706825935546E-3 0
4.506534658957765E-3 0
6.398969445114872E-3 0
-1.1261765106584965E-2 0
5.350604624121523E-3 0
1.3808709708942569E-3 0
-7.534707481232378E-4 0
1.406563361310713E-3 0
5.410629925582176E-3 0
-1.1154710369368754E-2 0
6.642111446690869E-3 0
5.106576345113127E-3 0
-2.0846425427668816E-3 0
-5.076748292056893E-3 0
2.2312036275092977E-3 0
-1.4726066344773554E-3 0
7.046545741239203E-3 0
-7.639607612350849E-4 0
4.462985667107237E-3 0
4.820537500637571E-3 0
-1.213383636047675E-3 0
7.818269465928554E-3 0
-2.188369342646372E-3 0
2.6484613427323494E-3 0
3.7822617005716535E-3 0
-7.179638098365178E-4 0
-1.0106591611434047E-3 0
2.3350113543771527E-3 0
3.137384308369605E-3 0
5.031813427550318E-3 0
-8.927221302851536E-4 0
-5.51153107654134E-4 0
4.847756501580178E-1 0
-1.0615617816381873E-3 0
-1.563590272465475E-3 0
4.5938008489425025E-3 0
3.2678776950339082E-3 0
2.8188235122904594E-3 0
-4.286156154674139E-4 0
1.9494777656959905E-5 0
3.5614032037912286E-3 0
-1.8091818283124653E-3 0
8.450190951631583E-4 0
-2.2562423571741916E-3 0
-6.356117629689849E-4 0
-5.817666491181834E-4 0
-2.518841495555358E-3 0
7.319323236359965E-4 0
-2.6264750707224605E-3 0
2.844701183314421E-3 0
-5.349066129153714E-3 0
-2.3880825915232142E-3 0
4.348433822377277E-3 0
6.315061974250486E-3 0
-1.1290427605796556E-2 0
5.3300911337534436E-3 0
1.3943007433161857E-3 0
-6.131633519178615E-4 0
1.7132158724870873E-3 0
5.847635045611453E-3 0
-1.0692115632416071E-2 0
7.274534549762875E-3 0
5.077236795836292E-3 0
-2.1731629140404004E-3 0
-5.394950399902624E-3 0
1.985751724482773E-3 0
-1.6269905356587747E-3 0
7.122803352383606E-3 0
-7.832289887850174E-4 0
4.6042069692958185E-3 0
4.976128428748448E-3 0
-1.0822112802271577E-3 0
8.001629009179372E-3 0
-1.8262780927780034E-3 0
-3.2467557789677445E-3 0
2.8476971166576247E-3 0
-6.358834032787917E-4 0
-9.377051844496331E-4 0
2.413731441557263E-3 0
3.2238765585339345E-3 0
5.033646672454731E-3 0
-1.1122608837551397E-3 0
-1.061561781638193E-3 0
4.840600303502724E-1 0
-1.780961916218616E-3 0
-1.8900848254212405E-3 0
5.0062953636346354E-3 0
3.6576034725546987E-3 0
3.3330574159225715E-3 0
3.686224901710522E-4 0
4.4560838327891913E-4 0
3.590753201489147E-3 0
-2.1229137285612323E-3 0
5.919455803817173E-4 0
-2.502417082076111E-3 0
-6.415466098590211E-4 0
-6.677410438804697E-4 0
-2.493144437933383E-3 0
5.735422751201487E-4 0
-2.0153380520623E-3 0
1.9321571502437743E-3 0
-5.579722366523175E-3 0
-2.573238137747226E-3 0
4.317350536860587E-3 0
6.391341950281978E-3 0
-1.1259505957595709E-2 0
5.3492633525955655E-3 0
1.584452754877871E-3 0
-2.703535578869668E-4 0
2.1340044328980175E-3 0
6.13021457048113E-3 0
-1.1297066112712164E-2 0
6.998155922231343E-3 0
4.3686035335943375E-3 0
-2.4776561753850367E-3 0
-5.474084789360861E-3 0
2.1791719934827693E-3 0
-1.551397856506573E-3 0
7.302620673506546E-3 0
-8.685930781714746E-4 0
4.9968214930750255E-3 0
5.170104864386468E-3 0
-6.82396033825125E-4 0
7.902830084493053E-3 0
6.973213054318804E-4 0
-2.2602059453469252E-3 0
2.943405077613979E-3 0
-5.351373531849525E-4 0
-8.991773117449846E-4 0
2.512117669816423E-3 0
3.292758344373017E-3 0
4.9185770746098464E-3 0
-1.563590272465455E-3 0
-1.7809619162186088E-3 0
4.8307884891488284E-1 0
-2.2246897913047055E-3 0
-1.7609790140734858E-3 0
5.245525638589134E-3 0
4.382253506270342E-3 0
4.1823267517435096E-3 0
3.872565094496687E-4 0
-2.802221053793463E-5 0
3.0054931855739817E-3 0
-2.617279721432884E-3 0
5.165413815357782E-4 0
-2.5965181851858436E-3 0
-6.414687586833425E-4 0
-8.544745307946026E-4 0
-2.52124160398032E-3 0
9.922236442330824E-3 0
-1.5475111814983328E-3 0
1.6963981821267007E-3 0
-5.728504658732361E-3 0
-2.632037528871098E-3 0
4.5804169766189545E-3 0
6.687807383059043E-3 0
-1.129284801683653E-2 0
5.488404697356046E-3 0
1.8022661952356678E-3 0
-4.294890203833479E-4 0
2.137186702724467E-3 0
6.49972525537164E-3 0
-1.1926358748072885E-2 0
6.380174751384276E-3 0
4.750292495944964E-3 0
-2.1052239224866854E-3 0
-5.140226196424989E-3 0
2.5579852427960285E-3 0
-1.9537326291860966E-3 0
7.43633922217573E-3 0
-6.560930736631887E-4 0
5.638541864804059E-3 0
5.120635650016925E-3 0
-4.5126514986888955E-4 0
-3.238421767711961E-3 0
5.448829095649916E-4 0
-2.2194020313171603E-3 0
2.9711197471329874E-3 0
-5.798348787894696E-4 0
-8.546561513152798E-4 0
2.474272496925763E-3 0
3.153631476979527E-3 0
4.5938008489425E-3 0
-1.8900848254212357E-3 0
-2.2246897913046778E-3 0
4.831419641042153E-1 0
-1.972842141992607E-3 0
-1.7765898079629716E-3 0
5.543505541130465E-3 0
4.390873205488935E-3 0
3.307230637968851E-3 0
-3.7566345224523354E-4 0
-6.992702233739066E-4 0
2.867609076171994E-3 0
-2.660512929582706E-3 0
6.768420933018642E-4 0
-2.841440232390005E-3 0
-5.780014575916452E-4 0
-8.916964659901542E-4 0
-5.680125886313263E-4 0
7.356713036945084E-3 0
-1.5419806490741266E-3 0
1.994273053959734E-3 0
-5.505438966082439E-3 0
-2.0474884888090792E-3 0
4.954455901948022E-3 0
6.5978079099983985E-3 0
-1.1034025376175313E-2 0
5.537585741162169E-3 0
1.3370380123303312E-3 0
-3.225455039962024E-4 0
2.313919125144187E-3 0
5.988979971109322E-3 0
-1.0750776003841955E-2 0
7.19920771346785E-3 0
4.904669235773269E-3 0
-1.7150894865443195E-3 0
-5.234838437852606E-3 0
2.096400694522332E-3 0
-2.1383281033849435E-3 0
8.135273129381502E-3 0
-1.0240026083869098E-3 0
5.912419864763915E-3 0
5.029702895790507E-3 0
-8.973104950505951E-4 0
-2.529395319512651E-3 0
5.33410512127035E-4 0
-2.456500288234797E-3 0
3.0200214903654586E-3 0
-6.829797358483201E-4 0
-1.0107466421854974E-3 0
2.5401178473018968E-3 0
3.267877695033906E-3 0
5.006295363634638E-3 0
-1.7609790140734913E-3 0
-1.9728421419926076E-3 0
4.814365096584562E-1 0
-2.2780986437212457E-3 0
-1.7747456260368696E-3 0
5.237151810892018E-3 0
3.6790221459406234E-3 0
2.7754237443125456E-3 0
-7.960353284707252E-4 0
-7.978822074697668E-4 0
3.155311673018001E-3 0
-2.8660431738117536E-3 0
8.21939588934139E-4 0
-2.9977801463630465E-3 0
-6.579847592366181E-4 0
7.518197398651111E-3 0
-2.301540417972117E-4 0
7.887061151960095E-3 0
-1.2222000617955304E-3 0
2.28480367072693E-3 0
-5.457773526523409E-3 0
-2.1199164608191167E-3 0
5.1547675888158045E-3 0
7.172072584620499E-3 0
-1.1638460425572301E-2 0
5.7806707030518606E-3 0
1.8176757913496353E-3 0
-1.7005445421478023E-4 0
2.4117272073628598E-3 0
6.490420022948956E-3 0
-1.1230900794810995E-2 0
7.398983865933912E-3 0
5.06361396808373E-3 0
-1.932499562719298E-3 0
-5.966189932369278E-3 0
2.5510289895016155E-3 0
-2.2153668952429E-3 0
8.772071893735196E-3 0
-1.282395467039966E-3 0
6.192109284414207E-3 0
-8.973104950504529E-4 0
-7.900083829606211E-4 0
-2.6050554708170336E-3 0
4.1128588416762334E-4 0
-2.5502691668721485E-3 0
2.939233301007752E-3 0
-6.633886016664491E-4 0
-8.7501704884482E-4 0
2.8188235122904555E-3 0
3.65760347255469E-3 0
5.245525638589135E-3 0
-1.7765898079629757E-3 0
-2.278098643721211E-3 0
4.8143650965845625E-1 0
-1.9736231619038097E-3 0
-1.757432657788429E-3 0
4.996739217677619E-3 0
3.289526569466708E-3 0
2.494218212629031E-3 0
-9.190959817318088E-4 0
-8.545236386698377E-4 0
3.3060001813282687E-3 0
-2.87522337338533E-3 0
9.679628403940028E-4 0
-2.867414707300951E-3 0
7.518197398651021E-3 0
5.451653758581744E-3 0
-3.0700765325575286E-4 0
7.794118649015021E-3 0
-1.486627297776018E-3 0
2.0496516489946727E-3 0
-5.64300667846273E-3 0
-2.132833786469553E-3 0
5.17969876097866E-3 0
7.339550235091464E-3 0
-1.1207304195753132E-2 0
6.485223304903867E-3 0
2.4117272073628576E-3 0
-1.7005445421478023E-4 0
1.8126209356085067E-3 0
5.803623151728901E-3 0
-1.1695855285031304E-2 0
7.282183795840063E-3 0
4.969676102971039E-3 0
-1.8288939904863078E-3 0
-5.903967868976854E-3 0
2.9381578514544823E-3 0
-2.14608481269074E-3 0
8.870173727951002E-3 0
-7.09495609055888E-4 0
-3.2380637544665884E-3 0
-7.47860438902984E-4 0
-8.333621854642057E-4 0
-2.5320616088641114E-3 0
4.027742829932196E-4 0
-2.45155324984177E-3 0
2.7235372844321196E-3 0
-6.074646009892088E-4 0
-4.286156154674182E-4 0
3.3330574159225602E-3 0
4.382253506270355E-3 0
5.54350554113048E-3 0
-1.7747456260368652E-3 0
-1.9736231619038105E-3 0
4.831409866432144E-1 0
-2.2203807726330323E-3 0
-1.898649417392395E-3 0
4.605035871635676E-3 0
3.1472109086858866E-3 0
2.4587712770838986E-3 0
-7.840056721709655E-4 0
-7.499153223810766E-4 0
3.2906841745689837E-3 0
-2.604387093997316E-3 0
7.646415916414894E-4 0
-5.754975372948768E-4 0
5.042244666023202E-3 0
5.237437378703449E-3 0
-2.4847808558911734E-4 0
7.482990259154545E-3 0
-1.659600453650951E-3 0
1.774735135519674E-3 0
-5.032447552325619E-3 0
-1.8312567618472113E-3 0
4.961231210681556E-3 0
7.180335016316915E-3 0
-1.0750738500014321E-2 0
5.994204332025332E-3 0
2.3088366265321433E-3 0
-3.119559401676554E-4 0
1.3067737090475147E-3 0
5.6041079642093075E-3 0
-1.1152604925254772E-2 0
6.783777807882569E-3 0
4.682987578733215E-3 0
-1.6594315521215864E-3 0
-6.047464255482194E-3 0
2.7444253627622135E-3 0
-2.3370754507895724E-3 0
8.13578919173829E-3 0
6.956956842345404E-4 0
-2.412073359985827E-3 0
-7.67579513697449E-4 0
-8.064834402966705E-4 0
-2.4055355612424244E-3 0
3.482321632263185E-4 0
-2.489384414905128E-3 0
2.9204064203225645E-3 0
1.9494777656969788E-5 0
3.686224901710564E-4 0
4.182326751743516E-3 0
4.390873205488933E-3 0
5.2371518108920165E-3 0
-1.757432657788422E-3 0
-2.2203807726330496E-3 0
4.830598702342061E-1 0
-1.7411069268397793E-3 0
-1.6281866538850906E-3 0
5.005812048482357E-3 0
3.194028455168645E-3 0
2.59585640863848E-3 0
-9.243474770640572E-4 0
-6.535968293566378E-4 0
3.1917451477648322E-3 0
-2.5262500631068685E-3 0
9.956223149142964E-3 0
-4.654822328609665E-4 0
5.291895583925776E-3 0
5.263130435608995E-3 0
-2.0965777324653795E-4 0
7.050275064233534E-3 0
-1.666083699736411E-3 0
2.36935397506425E-3 0
-5.035703743518992E-3 0
-2.145912705814748E-3 0
4.750239939746641E-3 0
6.39888873044357E-3 0
-1.195008086437761E-2 0
6.522803221295531E-3 0
2.1071042666102853E-3 0
-3.738067919091896E-4 0
1.7028451091552275E-3 0
5.646561916984334E-3 0
-1.1520672696286706E-2 0
6.991438796121475E-3 0
4.1926627531562125E-3 0
-2.1477297165088814E-3 0
-6.341018032458774E-3 0
2.319039599302146E-3 0
-1.9384811823378305E-3 0
-3.2418966488589845E-3 0
4.873478147756314E-4 0
-2.407158679715612E-3 0
-6.623828538545223E-4 0
-7.295997319043964E-4 0
-2.3930715215519016E-3 0
4.962937352565433E-4 0
-2.0587051787863057E-3 0
3.5614032037912286E-3 0
4.45608383278927E-4 0
3.872565094496775E-4 0
3.3072306379688544E-3 0
3.6790221459406308E-3 0
4.9967392176776156E-3 0
-1.8986494173923963E-3 0
-1.741106926839771E-3 0
4.8397734501497697E-1 0
-9.270721586928755E-4 0
-1.30078829841452E-3 0
5.269628291239057E-3 0
2.9575812445315148E-3 0
2.679447191164816E-3 0
-1.1370512011145309E-3 0
-5.569767309852128E-4 0
2.988793864064788E-3 0
-2.101367639576892E-3 0
7.354940297360596E-3 0
-4.020297207463701E-4 0
5.115842800081583E-3 0
4.827447129221698E-3 0
-6.369912081382642E-4 0
7.095590378444358E-3 0
-1.4112708430508607E-3 0
2.1144753776147214E-3 0
-5.474097241735348E-3 0
-2.4368276299729314E-3 0
4.31247127189464E-3 0
7.0579055631463964E-3 0
-1.1354776982243768E-2 0
6.196304776010383E-3 0
2.0344540478493597E-3 0
-1.1718345417735646E-4 0
1.3613033002163484E-3 0
5.655693846898128E-3 0
-1.1654243787411122E-2 0
6.868330980876129E-3 0
3.7778752443085517E-3 0
-1.9485008515922897E-3 0
-6.212641866083268E-3 0
2.3787172199415734E-3 0
3.769113393804612E-3 0
-2.3865600093893524E-3 0
5.276838400037874E-4 0
-2.3945400056868027E-3 0
-5.930332764672233E-4 0
-6.800031586891088E-4 0
-2.202838886654446E-3 0
8.128542692646839E-4 0
-1.8091818283124748E-3 0
3.5907532014891573E-3 0
-2.8022210537929674E-5 0
-3.7566345224522996E-4 0
2.7754237443125486E-3 0
3.289526569466709E-3 0
4.60503587163568E-3 0
-1.6281866538851101E-3 0
-9.270721586928629E-4 0
4.845579471037794E-1 0
-2.449239412862629E-4 0
-1.2822023178871635E-3 0
5.487770863435388E-3 0
2.648162645039584E-3 0
2.820216878963753E-3 0
-1.4039519131380594E-3 0
-5.818399881837714E-4 0
3.0147705549877363E-3 0
-1.482449812355969E-3 0
7.378869995363412E-3 0
-6.503703745744431E-4 0
4.861585604130034E-3 0
4.5548701051917875E-3 0
-6.879487339070855E-4 0
7.058862709421992E-3 0
-1.6269211624439762E-3 0
2.0504297275838164E-3 0
-5.4997296148632385E-3 0
-2.0578500842289007E-3 0
4.960535422451352E-3 0
7.3852623414724415E-3 0
-1.0809847920174908E-2 0
6.006081648267016E-3 0
1.4900060932032423E-3 0
-3.0533122333643864E-4 0
9.815086289065304E-4 0
5.861398947045759E-3 0
-1.19359846923828E-2 0
7.033930886404495E-3 0
3.660810863737629E-3 0
-1.8786282962426285E-3 0
-5.912435702234272E-3 0
-1.0287515073049754E-3 0
2.765750462428143E-3 0
-2.4174563380272227E-3 0
5.961904534160264E-4 0
-2.3929289862228173E-3 0
-4.824284086411743E-4 0
-5.563733459420579E-4 0
-2.083053369237444E-3 0
8.450190951631554E-4 0
-2.1229137285612228E-3 0
3.0054931855739795E-3 0
-6.992702233739053E-4 0
-7.960353284707256E-4 0
2.494218212629031E-3 0
3.147210908685894E-3 0
5.005812048482357E-3 0
-1.3007882984145311E-3 0
-2.4492394128621935E-4 0
4.84721941309401E-1 0
1.999647951512004E-4 0
-1.53150941735851E-3 0
5.69455540379537E-3 0
2.360341083312448E-3 0
2.823956238506667E-3 0
-1.3862135762183567E-3 0
-7.4515072213978935E-3 0
2.3491735696951504E-3 0
-1.5818389926414976E-3 0
7.2777268836625875E-3 0
-9.524295759431437E-4 0
4.75629504312512E-3 0
4.449258747175829E-3 0
-7.640385471051211E-4 0
7.110442131707138E-3 0
-1.612791955628906E-3 0
2.420344631801984E-3 0
-5.277648712899655E-3 0
-1.88324502790871E-3 0
4.920421568160446E-3 0
6.8265852897528324E-3 0
-1.1383019402389324E-2 0
5.717057201809891E-3 0
9.93924155196654E-4 0
-2.0514253428144331E-4 0
6.743884793468249E-4 0
6.239872094932757E-3 0
-1.235163087210768E-2 0
7.557684828181561E-3 0
3.6034325039749097E-3 0
-1.8348958727142887E-3 0
-1.5860714775618877E-3 0
-7.834868771940946E-4 0
2.8159512562157206E-3 0
-2.451224047746757E-3 0
6.91987428667393E-4 0
-2.3917730023978695E-3 0
-4.1085662934417446E-4 0
-5.425159809282177E-4 0
-2.256242357174184E-3 0
5.919455803817201E-4 0
-2.61727972143288E-3 0
2.867609076171994E-3 0
-7.978822074697667E-4 0
-9.190959817318098E-4 0
2.458771277083901E-3 0
3.1940284551686465E-3 0
5.269628291239056E-3 0
-1.2822023178871759E-3 0
1.9996479515122274E-4 0
4.8452556110959577E-1 0
5.906507969613257E-4 0
-1.9322948269204197E-3 0
5.930888201512974E-3 0
2.246610085718225E-3 0
2.6802726280617992E-3 0
-2.3603202745098974E-3 0
-5.445784755399865E-3 0
2.3453211730063914E-3 0
-1.7581428865441815E-3 0
7.27731597770537E-3 0
-1.143216329915889E-3 0
4.756675667221383E-3 0
4.480205829693727E-3 0
-7.514388125646646E-4 0
7.362795843047355E-3 0
-1.798855881212119E-3 0
2.3346903120484122E-3 0
-5.834494312005813E-3 0
-1.9605896108497865E-3 0
4.444699115065329E-3 0
6.8365568088543625E-3 0
-1.171440630107884E-2 0
5.82958663719278E-3 0
6.571994710906579E-4 0
1.3842143190532957E-4 0
3.293005739397814E-4 0
6.788191545504278E-3 0
-1.3009413565986993E-2 0
8.352665046538048E-3 0
3.7632160247832716E-3 0
3.162766155652615E-3 0
-1.1497786010141225E-3 0
-8.319370761669182E-4 0
2.8922776641497876E-3 0
-2.509348560789386E-3 0
8.015373772171022E-4 0
-2.4373685153875712E-3 0
-4.660743401744265E-4 0
-6.356117629689824E-4 0
-2.5024170820761122E-3 0
5.165413815357812E-4 0
-2.6605129295827097E-3 0
3.155311673018002E-3 0
-8.545236386698368E-4 0
-7.840056721709675E-4 0
2.5958564086384812E-3 0
2.957581244531507E-3 0
5.487770863435391E-3 0
-1.5315094173585164E-3 0
5.906507969613831E-4 0
4.8405421256724457E-1 0
1.0864858694061424E-3 0
-2.4782886761955296E-3 0
6.18489639942187E-3 0
2.5219648075552195E-3 0
5.56962741543461E-3 0
-1.6500171050817176E-3 0
-5.477068869370794E-3 0
2.3537380989680306E-3 0
-1.9737314410912827E-3 0
7.405769453846886E-3 0
-1.2179647991272726E-3 0
4.848322442604733E-3 0
4.6522544891057895E-3 0
-7.761367740968234E-4 0
7.640501449192917E-3 0
-1.8761073783339153E-3 0
2.6784999627354157E-3 0
-6.031438842210658E-3 0
-1.9216506200187497E-3 0
3.988493001544682E-3 0
6.775892856511044E-3 0
-1.1984064023992793E-2 0
6.2121318814265854E-3 0
3.163084149246803E-4 0
4.721262784791376E-4 0
9.703423064785041E-5 0
7.317906664490659E-3 0
-1.3397650775216565E-2 0
8.428212183259096E-3 0
3.8093275380446006E-3 0
2.302226979908642E-3 0
-1.0863381825990098E-3 0
-8.816054295431117E-4 0
2.999130681103849E-3 0
-2.6454575656794928E-3 0
8.618499014707096E-4 0
-2.5012023612609466E-3 0
-5.817666491181888E-4 0
-6.415466098590208E-4 0
-2.5965181851858366E-3 0
6.768420933018593E-4 0
-2.866043173811752E-3 0
3.306000181328268E-3 0
-7.499153223810782E-4 0
-9.243474770640562E-4 0
2.679447191164818E-3 0
2.6481626450395868E-3 0
5.694555403795359E-3 0
-1.9322948269204034E-3 0
1.086485869406152E-3 0
4.8341327372091636E-1 0
1.696790086926712E-3 0
-2.7727303269675188E-3 0
6.029291051089075E-3 0
1.0322877366313016E-2 0
3.936869703350157E-3 0
-1.7319113344624495E-3 0
-5.4867345053132835E-3 0
2.534696541382452E-3 0
-2.2055277733031976E-3 0
7.593954857374863E-3 0
-1.1919834537853136E-3 0
4.998350353362031E-3 0
5.026073537472901E-3 0
-6.353306580279505E-4 0
8.169795318877016E-3 0
-2.1823889452721344E-3 0
2.905179901483722E-3 0
-6.0819877474539525E-3 0
-2.1684862180250102E-3 0
3.748608843382906E-3 0
7.011734421636925E-3 0
-1.2373067939001104E-2 0
6.772279595485693E-3 0
8.917484001351886E-5 0
4.986737590363849E-4 0
9.605893260327331E-5 0
7.17485959733734E-3 0
-1.3204470116041492E-2 0
7.108416276790061E-3 0
2.743394257932285E-3 0
2.229895162419695E-3 0
-1.0456740004911372E-3 0
-9.518339585969784E-4 0
3.169250273666727E-3 0
-2.8043168440328664E-3 0
8.645785435955817E-4 0
-2.51884149555536E-3 0
-6.677410438804693E-4 0
-6.414687586833451E-4 0
-2.8414402323900007E-3 0
8.21939588934141E-4 0
-2.875223373385332E-3 0
3.2906841745689824E-3 0
-6.535968293566435E-4 0
-1.1370512011145137E-3 0
2.8202168789637355E-3 0
2.3603410833124665E-3 0
5.930888201512962E-3 0
-2.478288676195524E-3 0
1.6967900869266994E-3 0
4.8265454706404526E-1 0
2.1459706797958243E-3 0
-2.324903802030239E-3 0
-1.7144098260099615E-2 0
7.7919715203946405E-3 0
4.059631959376588E-3 0
-1.9109320470362414E-3 0
-5.639849682146298E-3 0
2.8901780746278093E-3 0
-2.3324219121930376E-3 0
7.824331128057955E-3 0
-1.0922682728457499E-3 0
5.143594483825917E-3 0
5.616718438546665E-3 0
-9.472903900341028E-4 0
8.85797881630431E-3 0
-2.23199173525986E-3 0
2.66771215268482E-3 0
-6.319190103103997E-3 0
-1.9220014315305997E-3 0
3.6708874387516226E-3 0
7.551594400452325E-3 0
-1.302072336339933E-2 0
7.308028241688569E-3 0
9.130658402275398E-5 0
3.507074322044673E-4 0
3.8568408612346184E-4 0
7.049221832578389E-3 0
-1.7626401263224388E-3 0
5.186051344100442E-3 0
2.9088113270815223E-3 0
2.2006827853313063E-3 0
-1.040877170710027E-3 0
-1.1322143382889258E-3 0
3.2502185533067186E-3 0
-2.7783902859431E-3 0
7.319323236359944E-4 0
-2.4931444379333815E-3 0
-8.544745307946072E-4 0
-5.780014575916391E-4 0
-2.9977801463630495E-3 0
9.679628403940028E-4 0
-2.6043870939973165E-3 0
3.1917451477648387E-3 0
-5.569767309852226E-4 0
-1.4039519131380438E-3 0
2.8239562385066535E-3 0
2.2466100857182385E-3 0
6.184896399421862E-3 0
-2.7727303269675175E-3 0
2.1459706797958313E-3 0
4.822492281426222E-1 0
1.222355103994963E-3 0
9.367145271620908E-3 0
-1.2595086263504788E-2 0
7.3617120896440095E-3 0
4.593016570604334E-3 0
-1.863218067422522E-3 0
-5.948634783221663E-3 0
2.963951787670484E-3 0
-2.1929471595866857E-3 0
7.980804094558883E-3 0
-7.113610654175923E-4 0
5.107972399238493E-3 0
5.944895481403992E-3 0
-1.2497351242735204E-3 0
8.837513385184561E-3 0
-2.369551337715203E-3 0
2.3317040773589847E-3 0
-6.183679837867499E-3 0
-1.8577979355373796E-3 0
3.6080020905053167E-3 0
8.347600743753106E-3 0
-1.340560375824641E-2 0
7.168717143258529E-3 0
3.8291874617739385E-4 0
2.1094103722864592E-4 0
5.184528145823005E-4 0
-3.3593172801378796E-4 0
-1.1784110289003282E-3 0
5.169779732332535E-3 0
3.1213331134085694E-3 0
2.315935496090319E-3 0
-1.02533325682559E-3 0
-1.0601333203130333E-3 0
3.106236864549002E-3 0
-2.626475070722464E-3 0
5.735422751201468E-4 0
-2.521241603980329E-3 0
-8.916964659901531E-4 0
-6.579847592366183E-4 0
-2.8674147073009548E-3 0
7.64641591641486E-4 0
-2.526250063106869E-3 0
2.9887938640647863E-3 0
-5.818399881837708E-4 0
-1.3862135762183578E-3 0
2.6802726280618023E-3 0
2.5219648075552195E-3 0
6.029291051089074E-3 0
-2.324903802030242E-3 0
1.2223551039949713E-3 0
4.82683421670809E-1 0
1.2579652659882343E-3 0
6.521039599418101E-3 0
-1.2126671797799523E-2 0
6.937078694255926E-3 0
4.863089277009626E-3 0
-1.8688139135066204E-3 0
-5.8264787083040425E-3 0
2.642901103019063E-3 0
-1.839762734505548E-3 0
7.891526117432116E-3 0
-4.302944677775168E-4 0
5.0850118180765565E-3 0
6.225480222927966E-3 0
-7.428665475696463E-4 0
8.08048066467664E-3 0
-1.9594536590140776E-3 0
2.390025519069141E-3 0
-5.898958622433531E-3 0
-1.829325048387055E-3 0
3.761825594455947E-3 0
8.423862254551653E-3 0
-1.3208601208516392E-2 0
7.046794257592178E-3 0
5.176907445463251E-4 0
-3.3381973342258624E-5 0
-1.375361160775795E-3 0
2.015936488276748E-3 0
7.473724426395584E-3 0
-1.5282019739012042E-2 0
9.00882952509254E-3 0
6.408955188937543E-3 0
-2.8672749763174977E-3 0
-7.150474436333865E-3 0
2.844701183314417E-3 0
-2.0153380520622995E-3 0
9.922236442330822E-3 0
-5.680125886313223E-4 0
7.5181973986511086E-3 0
7.518197398651018E-3 0
-5.754975372948731E-4 0
9.956223149142964E-3 0
-2.1013676395768895E-3 0
3.0147705549877337E-3 0
-7.451507221397888E-3 0
-2.3603202745098944E-3 0
5.569627415434613E-3 0
1.0322877366313018E-2 0
-1.714409826009963E-2 0
9.3671452716209E-3 0
1.2579652659882468E-3 0
6.654034130073953E-1 0
-1.8431558434495093E-2 0
1.401200015176267E-2 0
-3.736725365276957E-2 0
-1.4764725079835301E-2 0
-1.5500867671944467E-2 0
1.1026164970503528E-2 0
8.65274912593697E-3 0
-2.6980553273288584E-2 0
2.4002304700287108E-2 0
-1.0613753683324796E-2 0
1.922105512803973E-2 0
9.375967972683634E-4 0
9.375967972683131E-4 0
1.92178226438844E-2 0
-1.059907602871405E-2 0
2.3959096507577753E-2 0
-2.686631541874845E-2 0
8.370543885148697E-3 0
1.1655616433363988E-2 0
-1.6783387353539746E-2 0
-1.2470815324989813E-2 0
-4.109263472200225E-2 0
1.8260903244530276E-2 0
-2.1499473667926386E-2 0
2.0159364882776885E-3 0
-6.627756451670698E-4 0
1.4813178359185095E-3 0
5.465036131014938E-3 0
-1.1123461619189645E-2 0
6.548628315056652E-3 0
4.61551202664783E-3 0
-2.202706825935545E-3 0
-5.34906612915372E-3 0
1.9321571502437795E-3 0
-1.5475111814983345E-3 0
7.356713036945092E-3 0
-2.3015404179720927E-4 0
5.451653758581746E-3 0
5.04224466602321E-3 0
-4.6548223286096795E-4 0
7.354940297360595E-3 0
-1.4824498123559684E-3 0
2.3491735696951495E-3 0
-5.4457847553998654E-3 0
-1.6500171050817132E-3 0
3.936869703350156E-3 0
7.791971520394639E-3 0
-1.2595086263504779E-2 0
6.521039599418101E-3 0
-1.843155843449509E-2 0
5.8784597035591E-1 0
-1.3373179034335906E-2 0
1.023814273432465E-2 0
-2.7197822705315608E-2 0
-1.0788692531714847E-2 0
-1.1401897363440282E-2 0
7.959730276948539E-3 0
6.076613390626002E-3 0
-2.004691540841624E-2 0
1.704495032131086E-2 0
-7.835784142912451E-3 0
1.5006298240914671E-2 0
1.398357848821218E-3 0
1.2584094178817679E-3 0
1.420299155298095E-2 0
-7.678205149133444E-3 0
1.76101747694054E-2 0
-1.9765780194528255E-2 0
6.340989186849783E-3 0
8.364898621336622E-3 0
-1.213159391526206E-2 0
-9.06108558876577E-3 0
-2.949870853377827E-2 0
1.1985028481981878E-2 0
7.473724426394323E-3 0
1.480572262559808E-3 0
-6.682781951893553E-4 0
1.476367848994328E-3 0
5.456409729247911E-3 0
-1.1146480171583333E-2 0
6.492755557617775E-3 0
4.506534658957768E-3 0
-2.3880825915232272E-3 0
-5.579722366523163E-3 0
1.696398182126687E-3 0
-1.5419806490741014E-3 0
7.887061151960086E-3 0
-3.0700765325574966E-4 0
5.2374373787034524E-3 0
5.291895583925774E-3 0
-4.020297207463729E-4 0
7.378869995363412E-3 0
-1.5818389926414928E-3 0
2.345321173006386E-3 0
-5.477068869370795E-3 0
-1.7319113344624437E-3 0
4.059631959376582E-3 0
7.361712089644005E-3 0
-1.2126671797799514E-2 0
1.4012000151762656E-2 0
-1.3373179034335925E-2 0
5.878520312855533E-1 0
-1.3370147559631833E-2 0
1.0228009841013335E-2 0
-2.724080272944159E-2 0
-1.0892102669463546E-2 0
-1.1588362588898476E-2 0
7.668847905608532E-3 0
5.719745922192717E-3 0
-2.0334385052233433E-2 0
1.7136145254793966E-2 0
-7.986714229676244E-3 0
1.5053170064294599E-2 0
1.4175818049638389E-3 0
1.2664789762960728E-3 0
1.4274339092187848E-2 0
-7.934279395220675E-3 0
1.7855852891372873E-2 0
-2.0155588946998773E-2 0
6.708164044490489E-3 0
7.919873792294007E-3 0
-1.1691529808314753E-2 0
-1.0069222711488739E-2 0
-2.9075870915548915E-2 0
-1.5282019739010897E-2 0
5.462692092619083E-3 0
1.4737063495497628E-3 0
-6.729580965913136E-4 0
1.4691398398044325E-3 0
5.435673591008546E-3 0
-1.1197275965599583E-2 0
6.398969445114884E-3 0
4.348433822377265E-3 0
-2.5732381377472136E-3 0
-5.728504658732365E-3 0
1.9942730539597455E-3 0
-1.2222000617955347E-3 0
7.794118649015028E-3 0
-2.484780855891126E-4 0
5.2631304356089885E-3 0
5.115842800081581E-3 0
-6.503703745744443E-4 0
7.2777268836625875E-3 0
-1.7581428865441806E-3 0
2.3537380989680267E-3 0
-5.486734505313283E-3 0
-1.91093204703624E-3 0
4.593016570604326E-3 0
6.937078694255925E-3 0
-3.736725365276956E-2 0
1.0238142734324695E-2 0
-1.3370147559631835E-2 0
5.87849944855708E-1 0
-1.339011076039535E-2 0
1.0163869795704914E-2 0
-2.7383957926318696E-2 0
-1.1137339869880858E-2 0
-1.1930776416000273E-2 0
7.3224049391409475E-3 0
5.216172707511001E-3 0
-2.0475347629639814E-2 0
1.8447319321459394E-2 0
-7.776011811760109E-3 0
1.4612717341538774E-2 0
1.7058123466913943E-3 0
9.199431550321976E-4 0
1.4349803302977958E-2 0
-8.39196814182636E-3 0
1.8187061324391875E-2 0
-2.0727190285358237E-2 0
7.177009937318642E-3 0
7.535922900189851E-3 0
-1.1344025898686492E-2 0
-1.1245044836011164E-2 0
9.008829525091668E-3 0
-1.1127424746776362E-2 0
5.450352939875893E-3 0
1.4642631274701806E-3 0
-6.828498115170462E-4 0
1.449850645726945E-3 0
5.395306707195628E-3 0
-1.1261765106584961E-2 0
6.315061974250481E-3 0
4.31735053686059E-3 0
-2.6320375288711004E-3 0
-5.50543896608244E-3 0
2.28480367072693E-3 0
-1.4866272977760164E-3 0
7.48299025915454E-3 0
-2.096577732465378E-4 0
4.827447129221691E-3 0
4.861585604130045E-3 0
-9.524295759431425E-4 0
7.277315977705366E-3 0
-1.973731441091287E-3 0
2.5346965413824514E-3 0
-5.639849682146299E-3 0
-1.8632180674225196E-3 0
4.86308927700962E-3 0
-1.4764725079835303E-2 0
-2.719782270531565E-2 0
1.0228009841013332E-2 0
-1.3390110760395407E-2 0
5.878088190358463E-1 0
-1.3476482960127595E-2 0
9.998569971105487E-3 0
-2.765590782071305E-2 0
-1.1519461520083808E-2 0
-1.2336931848052145E-2 0
7.185908371353266E-3 0
5.678293532705581E-3 0
-2.107141585686232E-2 0
1.846803329061233E-2 0
-7.480020042736715E-3 0
1.4162919194681723E-2 0
1.463363397801693E-3 0
5.45323058843251E-4 0
1.4470036335132717E-2 0
-9.018554020554315E-3 0
1.8721010761783355E-2 0
-2.154725040849625E-2 0
7.814907041193744E-3 0
7.3011688430832545E-3 0
-1.1805509282767163E-2 0
6.408955188938081E-3 0
6.544457971736644E-3 0
-1.1154372974230012E-2 0
5.425839673106255E-3 0
1.4420027099939657E-3 0
-7.083367438311008E-4 0
1.4141929872844622E-3 0
5.350604624121523E-3 0
-1.129042760579655E-2 0
6.391341950281972E-3 0
4.5804169766189605E-3 0
-2.047488488809082E-3 0
-5.457773526523402E-3 0
2.049651648994666E-3 0
-1.6596004536509547E-3 0
7.050275064233529E-3 0
-6.369912081382676E-4 0
4.554870105191786E-3 0
4.7562950431251265E-3 0
-1.1432163299158868E-3 0
7.405769453846886E-3 0
-2.2055277733031998E-3 0
2.89017807462781E-3 0
-5.948634783221662E-3 0
-1.86881391350662E-3 0
-1.5500867671944469E-2 0
-1.0788692531714817E-2 0
-2.7240802729441575E-2 0
1.0163869795704944E-2 0
-1.3476482960127613E-2 0
5.876992691002327E-1 0
-1.361649133434645E-2 0
9.808703311267387E-3 0
-2.7957555395272362E-2 0
-1.1935495239400809E-2 0
-1.2802373407437694E-2 0
6.974432987944635E-3 0
6.156757122305562E-3 0
-2.088901640533664E-2 0
1.7890358968388045E-2 0
-6.857856727395591E-3 0
1.4164438577622944E-2 0
1.2929324408204735E-3 0
-6.120211750959841E-5 0
1.4623253830237055E-2 0
-9.767574104049416E-3 0
1.971811956333068E-2 0
-2.2789376088084012E-2 0
8.987962208342574E-3 0
7.400301417505678E-3 0
-2.8672749763178E-3 0
4.6142131657981025E-3 0
6.487657471064014E-3 0
-1.1208591565562335E-2 0
5.379313516111688E-3 0
1.4012912577020683E-3 0
-7.462284478706965E-4 0
1.3808709708942617E-3 0
5.330091133753439E-3 0
-1.1259505957595709E-2 0
6.6878073830590416E-3 0
4.954455901948031E-3 0
-2.1199164608191154E-3 0
-5.643006678462732E-3 0
1.7747351355196664E-3 0
-1.6660836997364043E-3 0
7.095590378444349E-3 0
-6.879487339070784E-4 0
4.449258747175837E-3 0
4.756675667221391E-3 0
-1.2179647991272802E-3 0
7.593954857374859E-3 0
-2.3324219121930367E-3 0
2.963951787670484E-3 0
-5.8264787083040365E-3 0
1.102616497050353E-2 0
-1.1401897363440295E-2 0
-1.0892102669463563E-2 0
-2.738395792631871E-2 0
9.998569971105478E-3 0
-1.361649133434644E-2 0
5.876461419366386E-1 0
-1.3549674325947787E-2 0
9.904794352476353E-3 0
-2.7917097721555432E-2 0
-1.2043176684218225E-2 0
-1.2437163672157666E-2 0
7.870318711495655E-3 0
6.118029272503408E-3 0
-1.9494955092453515E-2 0
1.7927709703880374E-2 0
-7.605653631823328E-3 0
1.3273916901249879E-2 0
7.648378691389257E-4 0
-4.4897982442186434E-4 0
1.4981069948703941E-2 0
-1.0311355234327284E-2 0
2.08530922184849E-2 0
-2.342176666950165E-2 0
8.437601571052274E-3 0
-7.150474436333669E-3 0
-2.197354303767629E-3 0
4.510995696676703E-3 0
6.392917539509686E-3 0
-1.1283089991080079E-2 0
5.322723901071816E-3 0
1.3637450128174081E-3 0
-7.534707481232271E-4 0
1.3943007433161782E-3 0
5.349263352595563E-3 0
-1.129284801683653E-2 0
6.5978079099984E-3 0
5.154767588815801E-3 0
-2.1328337864695646E-3 0
-5.032447552325622E-3 0
2.36935397506425E-3 0
-1.4112708430508566E-3 0
7.0588627094219855E-3 0
-7.640385471051128E-4 0
4.480205829693727E-3 0
4.848322442604731E-3 0
-1.1919834537853114E-3 0
7.824331128057953E-3 0
-2.1929471595866757E-3 0
2.6429011030190573E-3 0
8.652749125936969E-3 0
7.95973027694855E-3 0
-1.1588362588898473E-2 0
-1.1137339869880851E-2 0
-2.765590782071304E-2 0
9.80870331126738E-3 0
-1.3549674325947808E-2 0
5.881131628930509E-1 0
-1.2732958289335421E-2 0
1.0886961667192108E-2 0
-2.7231003642627555E-2 0
-1.1333920891945539E-2 0
-1.2823282866560731E-2 0
7.298731156323159E-3 0
5.452942680456051E-3 0
-2.0535775212069143E-2 0
1.615609029889688E-2 0
-8.988872775221077E-3 0
1.2807267779869295E-2 0
6.623690484249037E-4 0
-2.0376234679073818E-4 0
1.5328523357116344E-2 0
-1.0491836374177275E-2 0
2.066475571602073E-2 0
-2.2311926519017682E-2 0
2.8447011833142998E-3 0
-5.336095020849871E-3 0
-2.367526690684884E-3 0
4.358534597942504E-3 0
6.29294680855654E-3 0
-1.1338597850605606E-2 0
5.298419677913566E-3 0
1.4065633613107222E-3 0
-6.131633519178331E-4 0
1.5844527548778688E-3 0
5.488404697356043E-3 0
-1.1034025376175307E-2 0
7.172072584620493E-3 0
5.179698760978654E-3 0
-1.83125676184721E-3 0
-5.03570374351899E-3 0
2.1144753776147175E-3 0
-1.6269211624439733E-3 0
7.110442131707124E-3 0
-7.514388125646643E-4 0
4.6522544891057956E-3 0
4.998350353362031E-3 0
-1.09226827284575E-3 0
7.98080409455888E-3 0
-1.839762734505551E-3 0
-2.6980553273288584E-2 0
6.076613390625998E-3 0
7.668847905608538E-3 0
-1.193077641600027E-2 0
-1.1519461520083818E-2 0
-2.795755539527236E-2 0
9.904794352476352E-3 0
-1.2732958289335359E-2 0
5.897057933613035E-1 0
-1.0645049443454232E-2 0
1.2508969625646729E-2 0
-2.636559653933914E-2 0
-1.2049865042545701E-2 0
-1.4020999378546185E-2 0
5.432082053808942E-3 0
3.18892009270245E-3 0
-2.305765150618761E-2 0
1.5233249892809166E-2 0
-9.237639161311392E-3 0
1.368474760575136E-2 0
9.601661590542725E-4 0
4.3641288687715153E-4 0
1.537199620561627E-2 0
-9.613999226040787E-3 0
1.9474092972690146E-2 0
-2.0153380520623134E-3 0
1.9430682836358395E-3 0
-5.551005892619904E-3 0
-2.5467327012074934E-3 0
4.288194358292943E-3 0
6.298839113066191E-3 0
-1.1319649159631415E-2 0
5.4106299255821805E-3 0
1.7132158724870923E-3 0
-2.703535578869739E-4 0
1.8022661952356727E-3 0
5.537585741162173E-3 0
-1.1638460425572303E-2 0
7.3395502350914734E-3 0
4.9612312106815555E-3 0
-2.1459127058147576E-3 0
-5.47409724173535E-3 0
2.050429727583817E-3 0
-1.6127919556289034E-3 0
7.3627958430473464E-3 0
-7.761367740968271E-4 0
5.026073537472904E-3 0
5.143594483825917E-3 0
-7.113610654175901E-4 0
7.89152611743212E-3 0
2.4002304700287108E-2 0
-2.0046915408416244E-2 0
5.719745922192714E-3 0
7.322404939140943E-3 0
-1.2336931848052147E-2 0
-1.1935495239400813E-2 0
-2.7917097721555435E-2 0
1.0886961667192089E-2 0
-1.0645049443454202E-2 0
5.92653149431876E-1 0
-7.835999606498549E-3 0
1.372742188269581E-2 0
-2.8432864901578158E-2 0
-1.3671499140935189E-2 0
-1.5910651380816272E-2 0
2.006604828705272E-3 0
1.2968038466253011E-3 0
-2.3286531964734177E-2 0
1.6656472393015043E-2 0
-8.351797907772504E-3 0
1.5019003403493197E-2 0
7.678495110207444E-4 0
9.839143226211488E-4 0
1.4913243187444443E-2 0
-8.541959273338184E-3 0
9.92223644233097E-3 0
-1.5666430086537417E-3 0
1.7072397283475643E-3 0
-5.704672246934872E-3 0
-2.654527074051403E-3 0
4.377556734665833E-3 0
6.532088275082906E-3 0
-1.1154710369368754E-2 0
5.847635045611449E-3 0
2.1340044328980214E-3 0
-4.294890203833463E-4 0
1.3370380123303115E-3 0
5.7806707030518675E-3 0
-1.1207304195753116E-2 0
7.180335016316918E-3 0
4.75023993974664E-3 0
-2.436827629972933E-3 0
-5.499729614863237E-3 0
2.4203446318019793E-3 0
-1.7988558812121122E-3 0
7.640501449192918E-3 0
-6.353306580279494E-4 0
5.616718438546668E-3 0
5.1079723992384935E-3 0
-4.302944677775196E-4 0
-1.0613753683324796E-2 0
1.7044950321310856E-2 0
-2.0334385052233443E-2 0
5.216172707510991E-3 0
7.185908371353274E-3 0
-1.2802373407437685E-2 0
-1.2043176684218233E-2 0
-2.723100364262755E-2 0
1.2508969625646732E-2 0
-7.835999606498523E-3 0
5.976270052041532E-1 0
-4.929824973567705E-3 0
1.3808037102463798E-2 0
-2.923644806830787E-2 0
-1.765212768718104E-2 0
-2.0541760910823034E-2 0
1.8608459650078216E-3 0
3.5601557815921206E-3 0
-2.119993985861988E-2 0
1.8925618953389067E-2 0
-8.170074020130305E-3 0
1.5650825070978362E-2 0
4.2431624430283306E-4 0
1.935282921880039E-3 0
1.4809571442815863E-2 0
-5.6801258863154E-4 0
7.306494394780577E-3 0
-1.58012004592171E-3 0
1.9240347397446644E-3 0
-5.545320397388186E-3 0
-2.305898097236127E-3 0
4.713711792678658E-3 0
6.642111446690865E-3 0
-1.0692115632416076E-2 0
6.1302145704811364E-3 0
2.1371867027244677E-3 0
-3.225455039962029E-4 0
1.817675791349642E-3 0
6.485223304903864E-3 0
-1.075073850001432E-2 0
6.398888730443569E-3 0
4.312471271894635E-3 0
-2.0578500842289007E-3 0
-5.277648712899652E-3 0
2.334690312048411E-3 0
-1.8761073783339123E-3 0
8.169795318877019E-3 0
-9.472903900341055E-4 0
5.944895481403994E-3 0
5.08501181807656E-3 0
1.922105512803973E-2 0
-7.835784142912456E-3 0
1.7136145254793973E-2 0
-2.047534762963981E-2 0
5.678293532705574E-3 0
6.974432987944629E-3 0
-1.2437163672157674E-2 0
-1.1333920891945544E-2 0
-2.636559653933914E-2 0
1.3727421882695824E-2 0
-4.929824973567742E-3 0
5.97350272739496E-1 0
-7.585269211603134E-3 0
1.4316362494608208E-2 0
-3.073834028221371E-2 0
-1.7718832387547796E-2 0
-1.571039580392962E-2 0
5.0212016353613454E-3 0
6.165953405610268E-3 0
-2.0615537180525306E-2 0
1.9518793019258823E-2 0
-9.620559501836316E-3 0
1.7037086081469786E-2 0
-5.92092060752809E-4 0
2.142861936867191E-3 0
7.518197398651366E-3 0
-2.6016956825075015E-4 0
7.850276855915328E-3 0
-1.3034429399069285E-3 0
2.248043159065573E-3 0
-5.5825924471098005E-3 0
-2.2533294351881473E-3 0
5.10657634511312E-3 0
7.274534549762868E-3 0
-1.1297066112712166E-2 0
6.4997252553716375E-3 0
2.313919125144189E-3 0
-1.7005445421475494E-4 0
2.4117272073628545E-3 0
5.9942043320253225E-3 0
-1.1950080864377606E-2 0
7.057905563146388E-3 0
4.960535422451347E-3 0
-1.8832450279087116E-3 0
-5.834494312005808E-3 0
2.6784999627354174E-3 0
-2.1823889452721366E-3 0
8.85797881630431E-3 0
-1.249735124273526E-3 0
6.22548022292797E-3 0
9.375967972683689E-4 0
1.5006298240914678E-2 0
-7.986714229676244E-3 0
1.8447319321459387E-2 0
-2.107141585686232E-2 0
6.156757122305553E-3 0
7.870318711495648E-3 0
-1.2823282866560728E-2 0
-1.2049865042545706E-2 0
-2.843286490157818E-2 0
1.3808037102463791E-2 0
-7.585269211603136E-3 0
6.069963379573179E-1 0
-6.470062376213387E-3 0
1.430193780282351E-2 0
-2.9170950254952775E-2 0
-1.3838946634515552E-2 0
-1.368210113445896E-2 0
6.68292723769081E-3 0
7.165262225250795E-3 0
-2.2570688113431547E-2 0
2.092685112710362E-2 0
-1.0968939263219936E-2 0
1.8095952749514043E-2 0
1.2375423991773993E-4 0
7.518197398650816E-3 0
5.48166928503529E-3 0
-2.7022335721098913E-4 0
7.875361527126418E-3 0
-1.4498667861146597E-3 0
2.174470569581061E-3 0
-5.509593704093705E-3 0
-2.0846425427668777E-3 0
5.077236795836286E-3 0
6.998155922231343E-3 0
-1.1926358748072888E-2 0
5.988979971109322E-3 0
2.411727207362856E-3 0
-1.7005445421474922E-4 0
2.3088366265321485E-3 0
6.5228032212955225E-3 0
-1.135477698224376E-2 0
7.385262341472439E-3 0
4.920421568160439E-3 0
-1.9605896108497874E-3 0
-6.031438842210662E-3 0
2.9051799014837253E-3 0
-2.2319917352598604E-3 0
8.837513385184563E-3 0
-7.42866547569649E-4 0
9.375967972683186E-4 0
1.3983578488212145E-3 0
1.5053170064294607E-2 0
-7.77601181176011E-3 0
1.8468033290612338E-2 0
-2.0889016405336625E-2 0
6.118029272503419E-3 0
7.298731156323157E-3 0
-1.402099937854619E-2 0
-1.3671499140935187E-2 0
-2.9236448068307882E-2 0
1.431636249460821E-2 0
-6.470062376213381E-3 0
6.069963379573179E-1 0
-7.579246185009803E-3 0
1.3780688506214321E-2 0
-2.8359138735225484E-2 0
-1.2217028546843298E-2 0
-1.2468596977371179E-2 0
7.161918570905261E-3 0
7.483612036954571E-3 0
-2.328729297401853E-2 0
2.1708581640274366E-2 0
-1.1391020705810993E-2 0
1.739973897892384E-2 0
-5.754975372947439E-4 0
5.092462944307796E-3 0
5.275577016602772E-3 0
-1.7823874402158634E-4 0
7.522872962829667E-3 0
-1.401192482818808E-3 0
2.0154780811218725E-3 0
-5.076748292056891E-3 0
-2.1731629140403965E-3 0
4.368603533594337E-3 0
6.380174751384272E-3 0
-1.0750776003841956E-2 0
6.490420022948948E-3 0
1.8126209356085084E-3 0
-3.1195594016765216E-4 0
2.107104266610303E-3 0
6.196304776010385E-3 0
-1.0809847920174902E-2 0
6.826585289752833E-3 0
4.444699115065325E-3 0
-1.9216506200187581E-3 0
-6.081987747453956E-3 0
2.6677121526848197E-3 0
-2.3695513377152044E-3 0
8.08048066467664E-3 0
1.9217822643884403E-2 0
1.258409417881764E-3 0
1.417581804963841E-3 0
1.4612717341538775E-2 0
-7.480020042736712E-3 0
1.7890358968388042E-2 0
-1.949495509245351E-2 0
5.452942680456068E-3 0
5.43208205380896E-3 0
-1.591065138081628E-2 0
-1.765212768718103E-2 0
-3.0738340282213686E-2 0
1.4301937802823518E-2 0
-7.579246185009802E-3 0
5.973587384031926E-1 0
-4.965814968538016E-3 0
1.3799513951462897E-2 0
-2.646205680310746E-2 0
-1.1271609757276365E-2 0
-1.233157729905049E-2 0
6.443046338228848E-3 0
6.976604056940225E-3 0
-2.294398276691247E-2 0
2.014033969628896E-2 0
-9.75217387570591E-3 0
9.956223149142952E-3 0
-4.4634875344599825E-4 0
5.2810529431684015E-3 0
5.239293358939165E-3 0
-1.8717400547967113E-4 0
7.253142741969933E-3 0
-1.5103593079277848E-3 0
2.2312036275092925E-3 0
-5.394950399902624E-3 0
-2.477656175385041E-3 0
4.750292495944968E-3 0
7.1992077134678464E-3 0
-1.123090079481098E-2 0
5.803623151728912E-3 0
1.306773709047505E-3 0
-3.7380679190915665E-4 0
2.0344540478493423E-3 0
6.006081648267025E-3 0
-1.1383019402389323E-2 0
6.836556808854367E-3 0
3.988493001544682E-3 0
-2.1684862180250068E-3 0
-6.3191901031039955E-3 0
2.3317040773589786E-3 0
-1.9594536590140776E-3 0
-1.0599076028714058E-2 0
1.420299155298096E-2 0
1.26647897629608E-3 0
1.7058123466913964E-3 0
1.4162919194681729E-2 0
-6.857856727395589E-3 0
1.7927709703880374E-2 0
-2.0535775212069163E-2 0
3.188920092702453E-3 0
2.006604828705309E-3 0
-2.0541760910823027E-2 0
-1.7718832387547827E-2 0
-2.9170950254952786E-2 0
1.3780688506214335E-2 0
-4.96581496853801E-3 0
5.977793001893774E-1 0
-8.155076898033575E-3 0
1.3025280585641405E-2 0
-2.792730204346976E-2 0
-1.1255400194201562E-2 0
-1.3475332568911707E-2 0
7.412757835345418E-3 0
6.057766151230866E-3 0
-2.213244730903106E-2 0
1.9006282990585228E-2 0
-2.101367639576955E-3 0
7.344025175159427E-3 0
-4.307435103790148E-4 0
5.089348711772617E-3 0
4.856617338382324E-3 0
-5.445063410573956E-4 0
7.15572082193051E-3 0
-1.4726066344773528E-3 0
1.985751724482775E-3 0
-5.47408478936086E-3 0
-2.1052239224866828E-3 0
4.90466923577326E-3 0
7.3989838659339145E-3 0
-1.1695855285031302E-2 0
5.604107964209309E-3 0
1.7028451091552579E-3 0
-1.1718345417734702E-4 0
1.4900060932032141E-3 0
5.717057201809897E-3 0
-1.1714406301078839E-2 0
6.775892856511037E-3 0
3.748608843382905E-3 0
-1.9220014315306066E-3 0
-6.183679837867493E-3 0
2.390025519069141E-3 0
2.395909650757776E-2 0
-7.678205149133455E-3 0
1.4274339092187853E-2 0
9.199431550321934E-4 0
1.4633633978016923E-3 0
1.4164438577622951E-2 0
-7.605653631823323E-3 0
1.615609029889688E-2 0
-2.30576515061876E-2 0
1.2968038466253122E-3 0
1.8608459650078268E-3 0
-1.571039580392962E-2 0
-1.3838946634515558E-2 0
-2.8359138735225477E-2 0
1.3799513951462894E-2 0
-8.155076898033624E-3 0
5.93313016949648E-1 0
-1.1716140488561087E-2 0
1.238500582032733E-2 0
-2.9786352083461736E-2 0
-9.84005573364041E-3 0
-1.4403770500498878E-2 0
8.848558743142125E-3 0
5.127222201025741E-3 0
-2.1030634826859008E-2 0
3.014770554987893E-3 0
-1.4954139563615981E-3 0
7.358309198832441E-3 0
-6.60491395436613E-4 0
4.883675858616502E-3 0
4.603071819992546E-3 0
-6.562549893625194E-4 0
7.046545741239198E-3 0
-1.6269905356587693E-3 0
2.1791719934827715E-3 0
-5.140226196424994E-3 0
-1.715089486544321E-3 0
5.063613968083726E-3 0
7.282183795840051E-3 0
-1.1152604925254769E-2 0
5.646561916984342E-3 0
1.3613033002163539E-3 0
-3.053312233364176E-4 0
9.939241551966329E-4 0
5.829586637192789E-3 0
-1.1984064023992786E-2 0
7.011734421636923E-3 0
3.670887438751633E-3 0
-1.857797935537393E-3 0
-5.898958622433531E-3 0
-2.6866315418748465E-2 0
1.76101747694054E-2 0
-7.93427939522068E-3 0
1.4349803302977955E-2 0
5.453230588432561E-4 0
1.2929324408204814E-3 0
1.3273916901249879E-2 0
-8.98887277522108E-3 0
1.5233249892809188E-2 0
-2.328653196473419E-2 0
3.5601557815921254E-3 0
5.021201635361335E-3 0
-1.3682101134458946E-2 0
-1.22170285468433E-2 0
-2.6462056803107474E-2 0
1.3025280585641398E-2 0
-1.1716140488561093E-2 0
5.91437738226293E-1 0
-1.5167299199226691E-2 0
1.2999012519856728E-2 0
-3.157172667939503E-2 0
-7.657433325508031E-3 0
-1.569226024855015E-2 0
1.0629159718832137E-2 0
5.099679632185672E-3 0
-7.451507221398149E-3 0
2.343811294830729E-3 0
-1.5862925506831206E-3 0
7.283808441283361E-3 0
-9.310685138480413E-4 0
4.7841314437462165E-3 0
4.466353406863458E-3 0
-7.639607612350725E-4 0
7.122803352383601E-3 0
-1.5513978565065679E-3 0
2.557985242796026E-3 0
-5.234838437852613E-3 0
-1.932499562719297E-3 0
4.969676102971031E-3 0
6.783777807882578E-3 0
-1.1520672696286706E-2 0
5.655693846898127E-3 0
9.815086289065398E-4 0
-2.0514253428144746E-4 0
6.571994710906534E-4 0
6.212131881426591E-3 0
-1.2373067939001081E-2 0
7.551594400452318E-3 0
3.608002090505324E-3 0
-1.8293250483870497E-3 0
8.370543885148688E-3 0
-1.976578019452827E-2 0
1.785585289137288E-2 0
-8.391968141826356E-3 0
1.447003633513272E-2 0
-6.120211750960835E-5 0
7.648378691388997E-4 0
1.280726777986929E-2 0
-9.237639161311388E-3 0
1.6656472393015036E-2 0
-2.1199939858619895E-2 0
6.165953405610269E-3 0
6.682927237690823E-3 0
-1.2468596977371193E-2 0
-1.1271609757276374E-2 0
-2.7927302043469777E-2 0
1.238500582032734E-2 0
-1.5167299199226679E-2 0
5.915617320492644E-1 0
-1.8005813964619498E-2 0
1.5115720986084664E-2 0
-3.3405065033669384E-2 0
-5.507333497770355E-3 0
-1.6036311852680073E-2 0
1.0408292687319737E-2 0
-2.360320274509615E-3 0
-5.444474495300203E-3 0
2.350409108239221E-3 0
-1.7468649282231347E-3 0
7.293263760757282E-3 0
-1.1302623371695526E-3 0
4.756712616165027E-3 0
4.4629856671072315E-3 0
-7.832289887850126E-4 0
7.302620673506539E-3 0
-1.953732629186096E-3 0
2.0964006945223346E-3 0
-5.966189932369279E-3 0
-1.8288939904863106E-3 0
4.682987578733214E-3 0
6.991438796121484E-3 0
-1.1654243787411138E-2 0
5.861398947045753E-3 0
6.743884793468479E-4 0
1.3842143190529515E-4 0
3.163084149246591E-4 0
6.772279595485677E-3 0
-1.3020723363399316E-2 0
8.3476007437531E-3 0
3.7618255944559566E-3 0
1.165561643336399E-2 0
6.340989186849782E-3 0
-2.0155588946998777E-2 0
1.818706132439188E-2 0
-9.018554020554313E-3 0
1.4623253830237066E-2 0
-4.4897982442186624E-4 0
6.62369048424899E-4 0
1.3684747605751354E-2 0
-8.351797907772502E-3 0
1.892561895338907E-2 0
-2.0615537180525317E-2 0
7.165262225250785E-3 0
7.1619185709052725E-3 0
-1.2331577299050489E-2 0
-1.1255400194201551E-2 0
-2.9786352083461757E-2 0
1.2999012519856756E-2 0
-1.80058139646195E-2 0
5.935795174922912E-1 0
-2.0958782304159554E-2 0
1.824557682378766E-2 0
-3.554916205997703E-2 0
-4.5740002695161645E-3 0
-1.4915963108744839E-2 0
5.569627415434412E-3 0
-1.645857824595294E-3 0
-5.469163112266565E-3 0
2.3636152701610744E-3 0
-1.9658319250638E-3 0
7.40571788804596E-3 0
-1.230904387043875E-3 0
4.820537500637564E-3 0
4.604206969295826E-3 0
-8.685930781714803E-4 0
7.436339222175727E-3 0
-2.138328103384944E-3 0
2.5510289895016133E-3 0
-5.903967868976857E-3 0
-1.6594315521215924E-3 0
4.19266275315622E-3 0
6.868330980876125E-3 0
-1.1935984692382788E-2 0
6.2398720949327505E-3 0
3.2930057393980945E-4 0
4.721262784791514E-4 0
8.917484001350539E-5 0
7.308028241688541E-3 0
-1.3405603758246398E-2 0
8.423862254551672E-3 0
-1.6783387353539753E-2 0
8.364898621336629E-3 0
6.708164044490492E-3 0
-2.0727190285358237E-2 0
1.872101076178335E-2 0
-9.767574104049418E-3 0
1.4981069948703943E-2 0
-2.03762346790736E-4 0
9.601661590542643E-4 0
1.5019003403493195E-2 0
-8.170074020130312E-3 0
1.951879301925882E-2 0
-2.2570688113431554E-2 0
7.48361203695457E-3 0
6.443046338228863E-3 0
-1.347533256891173E-2 0
-9.84005573364041E-3 0
-3.157172667939503E-2 0
1.5115720986084677E-2 0
-2.0958782304159564E-2 0
5.972933202428963E-1 0
-2.4897079102339095E-2 0
2.2324514589715277E-2 0
-3.742937873058237E-2 0
-6.409015165255256E-3 0
1.032287736631307E-2 0
3.940841152856691E-3 0
-1.7258707188547667E-3 0
-5.481904485928634E-3 0
2.534641278058911E-3 0
-2.2133351587785457E-3 0
7.577996812444965E-3 0
-1.2133836360476698E-3 0
4.97612842874845E-3 0
4.996821493075022E-3 0
-6.560930736631934E-4 0
8.135273129381502E-3 0
-2.2153668952429044E-3 0
2.938157851454488E-3 0
-6.047464255482205E-3 0
-2.1477297165088775E-3 0
3.777875244308562E-3 0
7.033930886404489E-3 0
-1.235163087210767E-2 0
6.78819154550427E-3 0
9.703423064784294E-5 0
4.98673759036384E-4 0
9.130658402273543E-5 0
7.168717143258543E-3 0
-1.3208601208516394E-2 0
-1.2470815324989818E-2 0
-1.213159391526206E-2 0
7.919873792294018E-3 0
7.177009937318639E-3 0
-2.1547250408496258E-2 0
1.9718119563330676E-2 0
-1.0311355234327283E-2 0
1.5328523357116333E-2 0
4.364128868771511E-4 0
7.678495110207507E-4 0
1.5650825070978362E-2 0
-9.620559501836311E-3 0
2.0926851127103616E-2 0
-2.3287292974018527E-2 0
6.9766040569402285E-3 0
7.4127578353454125E-3 0
-1.4403770500498875E-2 0
-7.657433325508033E-3 0
-3.340506503366938E-2 0
1.824557682378766E-2 0
-2.4897079102339088E-2 0
6.022717046832919E-1 0
-2.9782417319323014E-2 0
2.461295158381129E-2 0
-3.5964806373260716E-2 0
-1.7144098260099633E-2 0
7.794313581028856E-3 0
4.062319502097027E-3 0
-1.9108694402468216E-3 0
-5.644648326911064E-3 0
2.8803421453113343E-3 0
-2.343768409590976E-3 0
7.818269465928543E-3 0
-1.0822112802271518E-3 0
5.170104864386463E-3 0
5.638541864804057E-3 0
-1.0240026083869085E-3 0
8.772071893735203E-3 0
-2.146084812690742E-3 0
2.7444253627622087E-3 0
-6.34101803245877E-3 0
-1.9485008515922888E-3 0
3.660810863737627E-3 0
7.5576848281815635E-3 0
-1.3009413565987003E-2 0
7.317906664490656E-3 0
9.605893260324644E-5 0
3.50707432204502E-4 0
3.8291874617734273E-4 0
7.046794257592174E-3 0
-4.109263472200224E-2 0
-9.061085588765765E-3 0
-1.169152980831475E-2 0
7.535922900189845E-3 0
7.814907041193747E-3 0
-2.2789376088084002E-2 0
2.0853092218484897E-2 0
-1.0491836374177277E-2 0
1.5371996205616266E-2 0
9.83914322621144E-4 0
4.243162443028286E-4 0
1.7037086081469775E-2 0
-1.0968939263219925E-2 0
2.1708581640274362E-2 0
-2.294398276691246E-2 0
6.05776615123088E-3 0
8.848558743142141E-3 0
-1.5692260248550152E-2 0
-5.507333497770358E-3 0
-3.554916205997699E-2 0
2.2324514589715252E-2 0
-2.978241731932301E-2 0
6.081546933472515E-1 0
-3.3161788454558035E-2 0
2.149171196087716E-2 0
9.367145271620806E-3 0
-1.2594345386473286E-2 0
7.361677051879632E-3 0
4.5902774950354365E-3 0
-1.8693772058349372E-3 0
-5.956574069130371E-3 0
2.958876500859762E-3 0
-2.1883693426463626E-3 0
8.001629009179369E-3 0
-6.823960338251268E-4 0
5.120635650016925E-3 0
5.912419864763914E-3 0
-1.2823954670399672E-3 0
8.870173727951002E-3 0
-2.3370754507895707E-3 0
2.319039599302149E-3 0
-6.212641866083273E-3 0
-1.8786282962426238E-3 0
3.6034325039749153E-3 0
8.35266504653804E-3 0
-1.3397650775216574E-2 0
7.174859597337347E-3 0
3.8568408612342655E-4 0
2.1094103722866923E-4 0
5.176907445462982E-4 0
1.8260903244530283E-2 0
-2.949870853377827E-2 0
-1.006922271148874E-2 0
-1.1344025898686492E-2 0
7.301168843083254E-3 0
8.98796220834257E-3 0
-2.342176666950165E-2 0
2.0664755716020732E-2 0
-9.613999226040792E-3 0
1.4913243187444443E-2 0
1.9352829218800293E-3 0
-5.920920607527997E-4 0
1.809595274951403E-2 0
-1.1391020705810988E-2 0
2.0140339696288957E-2 0
-2.213244730903108E-2 0
5.127222201025757E-3 0
1.0629159718832128E-2 0
-1.603631185268007E-2 0
-4.574000269516142E-3 0
-3.742937873058238E-2 0
2.46129515838113E-2 0
-3.316178845455803E-2 0
6.100481073087689E-1 0
-2.6815712964877947E-2 0
1.257965265988423E-3 0
6.521043293570525E-3 0
-1.2127438779799571E-2 0
6.934648900040822E-3 0
4.858967198541076E-3 0
-1.8731758242616597E-3 0
-5.827856778156222E-3 0
2.648461342732349E-3 0
-1.8262780927779968E-3 0
7.90283008449305E-3 0
-4.512651498688906E-4 0
5.02970289579051E-3 0
6.192109284414212E-3 0
-7.094956090558899E-4 0
8.13578919173829E-3 0
-1.9384811823378333E-3 0
2.378717219941583E-3 0
-5.912435702234286E-3 0
-1.8348958727143008E-3 0
3.7632160247832907E-3 0
8.4282121832591E-3 0
-1.320447011604151E-2 0
7.04922183257839E-3 0
5.184528145822598E-4 0
-3.3381973342252274E-5 0
-2.149947366792639E-2 0
1.1985028481981878E-2 0
-2.907587091554891E-2 0
-1.1245044836011145E-2 0
-1.1805509282767161E-2 0
7.4003014175056695E-3 0
8.437601571052286E-3 0
-2.2311926519017665E-2 0
1.947409297269013E-2 0
-8.541959273338166E-3 0
1.4809571442815844E-2 0
2.142861936867201E-3 0
1.237542399177502E-4 0
1.739973897892383E-2 0
-9.75217387570591E-3 0
1.9006282990585245E-2 0
-2.1030634826859025E-2 0
5.099679632185679E-3 0
1.0408292687319735E-2 0
-1.4915963108744842E-2 0
-6.409015165255243E-3 0
-3.596480637326071E-2 0
2.149171196087715E-2 0
-2.6815712964877933E-2 0
6.048803915488352E-1 0
