%%MatrixMarket matrix array complex general
%
50 50
4.6591870203631885E-1 0
3.3315379821876466E-3 0
-4.646825286720004E-3 0
6.355892167947563E-3 0
4.545392244884325E-3 0
-1.727396514539188E-3 0
-1.0851305419532478E-3 0
9.247144906458382E-5 0
1.083191731848026E-4 0
-1.5991847985438185E-5 0
6.009801552397917E-6 0
2.8809808111335415E-5 0
1.9522624353414918E-4 0
1.9522624353414508E-4 0
2.9183280996134443E-5 0
4.313983182988188E-6 0
-1.1281256048861812E-5 0
9.701727696828314E-5 0
1.1905698284977453E-4 0
-1.14624973015481E-3 0
-1.5864617472727406E-3 0
4.251620594949132E-3 0
6.9365659381910765E-3 0
-5.403611322875844E-3 0
3.903235613569822E-3 0
-2.0499633234021652E-2 0
1.3979874941143274E-3 0
-9.961458671579288E-3 0
-1.460633183863417E-2 0
1.0760383568371466E-2 0
5.429475235695662E-3 0
-1.6520527691418043E-3 0
-8.61564926188876E-4 0
1.5500729226291555E-5 0
1.014091161543222E-4 0
1.2107583973442733E-4 0
6.9645708517418E-5 0
1.503949368640671E-4 0
1.5039493686408255E-4 0
6.642971912863041E-5 0
1.3567859699829845E-4 0
6.379764617451869E-5 0
9.293772932201173E-5 0
-1.0064303113476933E-3 0
-1.3957034316416832E-3 0
5.0024832291973E-3 0
1.139545270704508E-2 0
-1.5298627966698777E-2 0
-9.522347184371411E-3 0
1.3496587903406793E-3 0
3.3315379821876505E-3 0
4.818984245566118E-1 0
2.4174009384892933E-3 0
-3.4008999218214002E-3 0
4.612882729256435E-3 0
3.29071338584489E-3 0
-1.2827164482515844E-3 0
-8.198440499272512E-4 0
3.289595452358082E-5 0
5.9928113154111365E-5 0
-7.1704062818070126E-6 0
-8.87724098768632E-6 0
-5.396083146605529E-6 0
2.3233990031964104E-6 0
1.8235568768992716E-5 0
2.393425600265944E-5 0
2.9043012825501914E-5 0
3.402720088817296E-5 0
1.1715403800699157E-4 0
7.302748090080605E-5 0
-7.683951913075314E-4 0
-1.2213166544677656E-3 0
3.194792849285565E-3 0
4.901855567087888E-3 0
-3.719379202582517E-3 0
1.397987494112988E-3 0
-1.0898814702124714E-2 0
9.91006781185445E-4 0
-7.298524528335325E-3 0
-1.0692612744812428E-2 0
7.785834896037527E-3 0
3.896638168715612E-3 0
-1.2669833107607055E-3 0
-6.73568898951552E-4 0
-2.4109527328371493E-6 0
1.3589334883551423E-5 0
-1.5305269857232826E-5 0
-6.606686208120007E-6 0
1.1738222001175784E-5 0
3.2287439010788434E-5 0
3.741471987776648E-5 0
7.146781505014834E-5 0
7.008161611416542E-5 0
1.6626404540234378E-4 0
-7.018058625128543E-4 0
-8.922664587374526E-4 0
3.5084855613156216E-3 0
8.713743325705956E-3 0
-1.159121059159531E-2 0
-7.157649239529087E-3 0
-4.646825286720002E-3 0
2.4174009384893063E-3 0
4.8188352378099647E-1 0
2.398691912194332E-3 0
-3.422382688077583E-3 0
4.589895627177139E-3 0
3.26734040951066E-3 0
-1.3060501001826085E-3 0
-8.432462485164793E-4 0
1.1075984301927427E-5 0
4.4260325322771326E-5 0
-1.2190213496942825E-5 0
2.617571001578073E-6 0
1.606092492433448E-5 0
1.958926775052978E-5 0
3.7329069786110384E-5 0
4.0824980791988404E-5 0
5.0411357993567044E-5 0
3.948065372140126E-5 0
1.5110106020161575E-4 0
4.5956361173480506E-5 0
-6.694204763171722E-4 0
-1.3723920053343955E-3 0
3.4809621327712165E-3 0
4.823339461951643E-3 0
-9.961458671577474E-3 0
9.90971929794874E-4 0
-1.0938860346131668E-2 0
9.408739710050268E-4 0
-7.355807727829246E-3 0
-1.0753348286070405E-2 0
7.725472871671612E-3 0
3.8396272353774575E-3 0
-1.3208430393179694E-3 0
-7.256504676089061E-4 0
-4.864909849039423E-5 0
-1.39437086304009E-5 0
1.0015480742529892E-6 0
3.0417017887329818E-5 0
4.357820301858722E-5 0
7.403184652545795E-5 0
8.213064266262269E-5 0
1.036964679344247E-4 0
1.3380905244130342E-4 0
1.8060143194242352E-4 0
-6.0990748498248E-4 0
-9.241796186575757E-4 0
3.5237473332121365E-3 0
8.66903364416485E-3 0
-1.1622433381791293E-2 0
6.355892167947561E-3 0
-3.4008999218214137E-3 0
2.3986919121943492E-3 0
4.818619758473027E-1 0
2.375828421969762E-3 0
-3.444385056324111E-3 0
4.570977343889638E-3 0
3.252544995532809E-3 0
-1.3196021518142092E-3 0
-8.592992320887812E-4 0
-2.683976894839727E-6 0
4.306978510049851E-5 0
-2.4583733002174398E-5 0
-2.3192817119723268E-5 0
1.7776607897690225E-5 0
4.184740369419282E-5 0
4.980364738474611E-5 0
4.46283404270386E-5 0
5.119176187219605E-5 0
5.054291269356947E-5 0
1.5738065964539052E-4 0
5.5293742818844847E-5 0
-6.354214540104697E-4 0
-1.4140844990294117E-3 0
3.6076645602156265E-3 0
-1.460633183863589E-2 0
-7.298752563792004E-3 0
9.406674641675751E-4 0
-1.099691177598948E-2 0
8.776596958465747E-4 0
-7.421982846272492E-3 0
-1.0820106529272807E-2 0
7.662087806795879E-3 0
3.781646662595161E-3 0
-1.3739491353762724E-3 0
-7.804077589902171E-4 0
-8.15256574892643E-5 0
1.9585395518836473E-5 0
2.9313201661869565E-5 0
5.352906426786742E-5 0
9.795467330267096E-5 0
1.0464874496685664E-4 0
1.310262544573793E-4 0
1.3033932502652375E-4 0
2.2056755562068354E-4 0
1.3515622622722735E-4 0
-4.1874366340031625E-4 0
-1.210185025037402E-3 0
4.105460885981874E-3 0
8.2770528708772E-3 0
4.545392244884327E-3 0
4.612882729256445E-3 0
-3.4223826880776017E-3 0
2.375828421969731E-3 0
4.8183943982886135E-1 0
2.3555305901871316E-3 0
-3.460294797801909E-3 0
4.5618469440555556E-3 0
3.2476960086383817E-3 0
-1.3272426578165456E-3 0
-8.825830341741615E-4 0
-1.542894676014768E-5 0
3.703052266025351E-5 0
-1.9484746227598586E-5 0
2.363268886940208E-5 0
4.785510217156056E-5 0
3.6699547879594945E-5 0
3.714831430858897E-5 0
4.98342809255733E-5 0
5.114176051408586E-5 0
7.660640774956437E-5 0
1.2550346911614906E-4 0
1.2367372779497758E-4 0
-7.777302720676007E-4 0
-1.3005931501305996E-3 0
1.0760383568372786E-2 0
-1.0693416372186477E-2 0
-7.356512461872247E-3 0
8.777695343082693E-4 0
-1.1064648977394937E-2 0
8.021951769337578E-4 0
-7.50817717491894E-3 0
-1.0914668785009265E-2 0
7.572487598809319E-3 0
3.716733833409176E-3 0
-1.4414910783771976E-3 0
-8.229604503485076E-4 0
-1.0757164724059646E-4 0
-1.2651246051567121E-5 0
6.720688073930037E-5 0
1.1013253312025609E-4 0
1.357001143287007E-4 0
1.7607907550345876E-4 0
2.0351207376395587E-4 0
1.8172313134656742E-4 0
2.556794699315674E-4 0
1.3005406297224526E-4 0
-3.5093515594572386E-4 0
-1.3380978994332565E-3 0
4.335931903155469E-3 0
-1.727396514539193E-3 0
3.2907133858448923E-3 0
4.589895627177154E-3 0
-3.444385056324112E-3 0
2.355530590187123E-3 0
4.818188715907722E-1 0
2.332226940231566E-3 0
-3.4845406203076077E-3 0
4.545825183741247E-3 0
3.2495481154544022E-3 0
-1.3494654206384813E-3 0
-9.035368599893627E-4 0
-9.80976510899623E-6 0
6.105812112678317E-5 0
3.588551862541133E-5 0
2.562886451526535E-5 0
1.1794232243081148E-5 0
4.432352344350685E-5 0
6.342557778047072E-5 0
7.066925700031825E-5 0
5.9219033195401834E-5 0
7.804982183043146E-5 0
1.1290925733903337E-4 0
1.2890470718877886E-4 0
-8.326362085566971E-4 0
5.429475235694877E-3 0
7.783843091111299E-3 0
-1.0754921678367863E-2 0
-7.420702429700859E-3 0
8.05610897841058E-4 0
-1.1157337685145876E-2 0
6.752981172112961E-4 0
-7.675118701406369E-3 0
-1.1099172249676464E-2 0
7.416187065745201E-3 0
3.628763499824655E-3 0
-1.4706362489258075E-3 0
-8.680021584140606E-4 0
-1.7153057586341725E-5 0
9.61950435326441E-5 0
1.4287890796912316E-4 0
2.5744521157953164E-4 0
3.102230684682254E-4 0
2.9927519781191853E-4 0
2.4876839479870443E-4 0
2.1737232509706932E-4 0
2.1286742894200956E-4 0
1.8944421705123778E-4 0
-5.256295354944082E-4 0
-1.219135932976067E-3 0
-1.0851305419532478E-3 0
-1.2827164482515836E-3 0
3.267340409510656E-3 0
4.570977343889646E-3 0
-3.4602947978019044E-3 0
2.3322269402315534E-3 0
4.817727508928086E-1 0
2.2550643002354643E-3 0
-3.5709194156634165E-3 0
4.491843074180209E-3 0
3.2567395788009857E-3 0
-1.3289145056764584E-3 0
-9.403964087490651E-4 0
2.8343723130188948E-5 0
4.3255788307413085E-5 0
-1.9658886889627907E-5 0
6.631734832863045E-5 0
1.237127732388422E-4 0
1.2328617907211327E-4 0
9.40689133466044E-5 0
6.770019880230413E-5 0
5.6948611198043725E-5 0
5.752964884727367E-5 0
1.2862223945678955E-4 0
8.49627899026447E-5 0
-1.6520527691414764E-3 0
3.892755150362593E-3 0
7.722707981477488E-3 0
-1.0815853386306919E-2 0
-7.495936231173495E-3 0
6.880026035512853E-4 0
-1.1347335754901077E-2 0
3.962204789812176E-4 0
-8.032051706586742E-3 0
-1.1489479484094338E-2 0
7.207243777647209E-3 0
3.5514984835998955E-3 0
-1.5398034833764651E-3 0
-6.56968573303696E-4 0
1.7038248701390442E-4 0
4.029247739579368E-4 0
5.908500948857926E-4 0
5.51873614486171E-4 0
4.467852233812971E-4 0
3.338285398115479E-4 0
2.3510688885717076E-4 0
1.916969843067477E-4 0
1.728991065175483E-4 0
1.7456840729208743E-4 0
-6.080855681171851E-4 0
9.247144906458184E-5 0
-8.19844049927254E-4 0
-1.3060501001826072E-3 0
3.252544995532804E-3 0
4.561846944055542E-3 0
-3.484540620307613E-3 0
2.2550643002354435E-3 0
4.816087312566616E-1 0
2.016171940922196E-3 0
-3.819418969104737E-3 0
4.416039819970788E-3 0
3.2552869611587464E-3 0
-1.3952159992955075E-3 0
-8.655440377891871E-4 0
1.4968162872155839E-5 0
1.917079048803091E-4 0
3.4181513172398397E-4 0
3.2356996016665967E-4 0
2.2778590004285965E-4 0
1.2329542754868641E-4 0
6.478185109238814E-5 0
4.7078207234422946E-5 0
4.7768909715742706E-5 0
5.129884396194132E-5 0
1.168169043540724E-4 0
-8.615649261889728E-4 0
-1.273310779115995E-3 0
3.8354045766959897E-3 0
7.671262036211896E-3 0
-1.088747897691762E-2 0
-7.63977207116698E-3 0
4.1967681804700135E-4 0
-1.1758644778620007E-2 0
-1.5148000821155351E-4 0
-8.661614667587952E-3 0
-1.208220920205975E-2 0
6.839824057214844E-3 0
3.758243255753611E-3 0
-1.241633645001444E-3 0
-4.7481850957871254E-5 0
1.0242402400427307E-3 0
1.042975531138195E-3 0
8.493849290554375E-4 0
6.278536270824561E-4 0
4.246839375682846E-4 0
2.6153978225997704E-4 0
1.7067571375426195E-4 0
1.3257723409473208E-4 0
1.5589047617271075E-4 0
1.0872870908321243E-4 0
1.0831917318480157E-4 0
3.289595452358386E-5 0
-8.432462485164817E-4 0
-1.319602151814209E-3 0
3.2476960086383917E-3 0
4.545825183741257E-3 0
-3.570919415663403E-3 0
2.0161719409222127E-3 0
4.811797127749876E-1 0
1.4755947411779172E-3 0
-4.286105578668332E-3 0
4.149025922829935E-3 0
3.3882527163864385E-3 0
-1.276991639467987E-3 0
-4.2838757547489405E-4 0
7.949134579273237E-4 0
8.814862956497155E-4 0
6.154248675497213E-4 0
3.2350527635264875E-4 0
1.237762592357221E-4 0
4.3684647965771524E-5 0
3.831895456026362E-5 0
4.682606240138157E-5 0
4.346368975582136E-5 0
4.071477349362655E-5 0
1.5500729226306747E-5 0
-6.824740537665184E-4 0
-1.3271665641859803E-3 0
3.7959090008103124E-3 0
7.619819201750745E-3 0
-1.1029428678736145E-2 0
-7.980090584996019E-3 0
-1.497368423644155E-4 0
-1.2485574630467924E-2 0
-8.940856828440406E-4 0
-9.444147834040188E-3 0
-1.2363743818191733E-2 0
7.413630235570656E-3 0
3.971061100678711E-3 0
-4.365535492503079E-4 0
7.393042613439444E-4 0
1.311125632803972E-3 0
1.1824683524901622E-3 0
8.475075434011887E-4 0
4.994338633598375E-4 0
2.4142652145456065E-4 0
1.3187459390264031E-4 0
1.1009115911102241E-4 0
1.0316248656184463E-4 0
1.1883961262630081E-4 0
-1.599184798543895E-5 0
5.992811315411119E-5 0
1.1075984301930496E-5 0
-8.59299232088781E-4 0
-1.3272426578165557E-3 0
3.249548115454394E-3 0
4.491843074180218E-3 0
-3.819418969104728E-3 0
1.4755947411779228E-3 0
4.80455996223167E-1 0
8.36457698546801E-4 0
-4.4251545372550535E-3 0
4.51341725039736E-3 0
3.514415523495226E-3 0
-5.736196573983703E-4 0
4.689896488984162E-4 0
1.2674173129731913E-3 0
8.812391657681674E-4 0
3.4219544087100593E-4 0
6.58844283106062E-5 0
1.2462273828379451E-5 0
3.5872852575189014E-5 0
4.883799991077515E-5 0
4.437432213876388E-5 0
2.7874607278675468E-5 0
1.0140911615432316E-4 0
-1.3212736922055856E-5 0
-7.350380237400066E-4 0
-1.3593964909592996E-3 0
3.780438164810159E-3 0
7.528703384448032E-3 0
-1.1401603926553639E-2 0
-8.694205724846788E-3 0
-1.0141991905355658E-3 0
-1.329063618031961E-2 0
-1.6119633586120447E-3 0
-9.526018184868857E-3 0
-1.2840098852063539E-2 0
7.379625011937089E-3 0
4.251415737020987E-3 0
-1.4874500474672711E-5 0
8.020303457338271E-4 0
1.430653184726682E-3 0
1.0764494390606172E-3 0
5.022483939631146E-4 0
1.454262610466525E-4 0
6.970237968372634E-5 0
9.381608088433879E-5 0
9.442085849857864E-5 0
7.009070343062191E-5 0
6.009801552401092E-6 0
-7.170406281801292E-6 0
4.426032532277423E-5 0
-2.683976894840864E-6 0
-8.825830341741592E-4 0
-1.3494654206384793E-3 0
3.2567395788009757E-3 0
4.416039819970782E-3 0
-4.28610557866833E-3 0
8.364576985467595E-4 0
4.796113855805715E-1 0
5.31018891174589E-4 0
-4.480696604931332E-3 0
4.424889658572323E-3 0
4.186001987822406E-3 0
3.9501769862960166E-4 0
4.6881569021362386E-4 0
7.953239022123595E-4 0
1.91105721653676E-4 0
-1.8927379292626807E-5 0
2.4747811383145037E-5 0
4.8819220484627315E-5 0
4.148589848597581E-5 0
3.670183186600452E-5 0
2.5970374140393177E-5 0
1.2107583973443543E-4 0
2.552167997661243E-6 0
-6.0619163971243874E-5 0
-7.743594218982691E-4 0
-1.3838616475236095E-3 0
3.776336732662165E-3 0
7.372563119331974E-3 0
-1.2144330549428739E-2 0
-9.841123777690294E-3 0
-1.9393479797730443E-3 0
-1.4544981470284886E-2 0
-2.1772703776392205E-3 0
-9.92701070833514E-3 0
-1.3322525928537235E-2 0
7.698800436021344E-3 0
5.323676943291401E-3 0
3.1085840599066444E-4 0
1.1393936332697373E-3 0
1.0819986741680433E-3 0
2.4260679020894898E-4 0
-9.690581673318407E-6 0
5.766989195522946E-5 0
8.683193704560637E-5 0
8.778781549909943E-5 0
5.6181667397218724E-5 0
2.8809808111336537E-5 0
-8.877240987690744E-6 0
-1.2190213496942412E-5 0
4.306978510050149E-5 0
-1.542894676015345E-5 0
-9.035368599893687E-4 0
-1.3289145056764495E-3 0
3.255286961158751E-3 0
4.149025922829926E-3 0
-4.425154537255033E-3 0
5.310188911745949E-4 0
4.797944465354636E-1 0
8.1787680198457E-4 0
-4.94381440465239E-3 0
4.662979948630849E-3 0
4.186711178169818E-3 0
-5.752942182637776E-4 0
-4.2548348390380656E-4 0
1.0887079235505583E-5 0
4.8097300185611195E-5 0
3.0948313869413643E-5 0
2.8010338006819444E-5 0
1.427175952649786E-5 0
2.197965866054176E-5 0
1.8268059427983996E-5 0
6.964570851741256E-5 0
-2.418201072307256E-5 0
-2.4792345742086273E-5 0
-8.377867562699337E-5 0
-7.982245839350032E-4 0
-1.3750896682676497E-3 0
3.7306801813102967E-3 0
6.879852824645807E-3 0
-1.2802931525476688E-2 0
-1.0057003540686504E-2 0
-2.8958646370170547E-3 0
-1.4767884110183288E-2 0
-2.085649631884653E-3 0
-1.069552416101779E-2 0
-1.1570927875546026E-2 0
8.417555617146353E-3 0
4.782380108750224E-3 0
2.6015349859488422E-6 0
-8.742111651030028E-5 0
-8.933727995386842E-6 0
8.024684204637371E-7 0
4.220454323708455E-5 0
5.597443859024338E-5 0
5.4994525315874726E-5 0
4.179107612236278E-5 0
1.9522624353414929E-4 0
-5.3960831466060296E-6 0
2.6175710015762123E-6 0
-2.4583733002176648E-5 0
3.703052266025328E-5 0
-9.809765108997404E-6 0
-9.403964087490661E-4 0
-1.3952159992955075E-3 0
3.3882527163864385E-3 0
4.51341725039736E-3 0
-4.4806966049313335E-3 0
8.178768019845716E-4 0
4.7737941913641496E-1 0
3.4848685156217837E-4 0
-4.943628032254769E-3 0
4.4240434023960626E-3 0
3.5164545965897633E-3 0
-1.2805322162108195E-3 0
-8.606323926883359E-4 0
2.2664707909339938E-5 0
6.657806324316338E-5 0
-2.387209571748952E-5 0
-2.0825045590490064E-5 0
1.5729761508304607E-5 0
2.195628208831854E-6 0
1.5039493686406642E-4 0
-1.0359900985844682E-5 0
-3.6932976026748467E-6 0
1.746715104626249E-5 0
-1.058498358347098E-4 0
-8.511077347896304E-4 0
-1.4667622859665709E-3 0
3.834483123819691E-3 0
7.2528631977947225E-3 0
-1.3123313523094047E-2 0
-1.0609914930721213E-2 0
-2.642230393614737E-3 0
-1.6163132144983338E-2 0
-2.6356165212106978E-3 0
-1.0138474736299008E-2 0
-1.2641749751687116E-2 0
7.6679653176415915E-3 0
4.122937854466518E-3 0
-1.3055261589565645E-3 0
-7.444772554423283E-4 0
-1.9266444981772592E-5 0
-2.7743036508815775E-5 0
4.1789739617539817E-5 0
2.9085500107082042E-5 0
1.8228013595307347E-5 0
1.952262435341452E-4 0
2.3233990031969033E-6 0
1.6060924924335467E-5 0
-2.3192817119721875E-5 0
-1.948474622759849E-5 0
6.105812112678388E-5 0
2.8343723130191794E-5 0
-8.655440377891824E-4 0
-1.2769916394679878E-3 0
3.5144155234952254E-3 0
4.424889658572323E-3 0
-4.943814404652389E-3 0
3.484868515621731E-4 0
4.7737941913641496E-1 0
8.178310351199058E-4 0
-4.480488792549326E-3 0
4.5128975792093585E-3 0
3.3892497744473335E-3 0
-1.3968432216541413E-3 0
-9.381070705626024E-4 0
-1.2608829591933084E-5 0
4.012596001992931E-5 0
-2.7891093328789488E-5 0
5.524542874230995E-6 0
-6.950281301485696E-6 0
1.5039493686408017E-4 0
1.5491436778894656E-5 0
3.511186356427114E-5 0
3.143144613443717E-5 0
-1.4373057457440948E-5 0
-3.40474812107749E-5 0
-7.30009770713578E-4 0
-1.3178735130675275E-3 0
4.131828138454625E-3 0
7.662839682967566E-3 0
-1.2639621706151169E-2 0
-1.0138943399287706E-2 0
-2.635616521210721E-3 0
-1.6163132144983324E-2 0
-2.643556893711485E-3 0
-1.0603891727102813E-2 0
-1.3137815397781173E-2 0
7.277987910855819E-3 0
3.7997445663594505E-3 0
-1.4266691332994982E-3 0
-8.905806785605467E-4 0
-7.242862153114028E-5 0
-6.665877186363617E-6 0
9.997508946686333E-6 0
-1.5326597366640856E-5 0
2.9183280996134626E-5 0
1.8235568768988115E-5 0
1.9589267750526037E-5 0
1.7776607897691783E-5 0
2.3632688869402737E-5 0
3.5885518625412634E-5 0
4.325578830741269E-5 0
1.4968162872157303E-5 0
-4.283875754748937E-4 0
-5.736196573983729E-4 0
4.186001987822429E-3 0
4.662979948630871E-3 0
-4.9436280322547755E-3 0
8.178310351199033E-4 0
4.797932792533601E-1 0
5.358589364947463E-4 0
-4.436052576891189E-3 0
4.167315609253349E-3 0
3.2305369208712026E-3 0
-1.300804944206186E-3 0
-9.310443007693472E-4 0
8.206651660828681E-6 0
2.5402753830588184E-5 0
-1.792659799551966E-6 0
-1.3120786783375194E-5 0
6.642971912863443E-5 0
4.116417159594392E-5 0
5.442682843757449E-5 0
5.578202360234293E-5 0
4.247101434113901E-5 0
6.493051059019024E-7 0
-8.797516121317289E-6 0
-8.751167755353065E-5 0
2.629375451919585E-6 0
4.782399636997387E-3 0
8.41740852454563E-3 0
-1.1570884248120089E-2 0
-1.0695022838619207E-2 0
-2.0870087913912837E-3 0
-1.4763723599292405E-2 0
-2.9076372809467327E-3 0
-1.0032481144893848E-2 0
-1.2843178155587172E-2 0
6.935135472354633E-3 0
3.6656661136431094E-3 0
-1.3089824115595364E-3 0
-8.571191339300814E-4 0
-3.763277597632722E-5 0
-5.402767892132066E-5 0
-1.3621526289248503E-5 0
4.3139831829915375E-6 0
2.3934256002662792E-5 0
3.7329069786114145E-5 0
4.184740369419141E-5 0
4.78551021715587E-5 0
2.5628864515262762E-5 0
-1.965888688962759E-5 0
1.9170790488030556E-4 0
7.949134579273105E-4 0
4.689896488983996E-4 0
3.9501769862960523E-4 0
4.186711178169827E-3 0
4.424043402396068E-3 0
-4.480488792549321E-3 0
5.358589364947473E-4 0
4.795914981400816E-1 0
8.811071358307089E-4 0
-4.3617577771548925E-3 0
4.520614298103382E-3 0
3.1345640731857286E-3 0
-1.2266577822856548E-3 0
-9.902279128424288E-4 0
7.982110947981193E-5 0
-6.580739855941974E-6 0
1.1552834125422454E-5 0
1.356785969982993E-4 0
4.845192436361214E-5 0
8.600196509907855E-5 0
9.190660321701643E-5 0
5.2503102196942785E-5 0
-4.698149166142525E-6 0
2.3759773776085787E-4 0
1.0863663967326897E-3 0
1.1363019211398403E-3 0
3.1251673118584493E-4 0
5.323614149654896E-3 0
7.698763259878949E-3 0
-1.3324802269784814E-2 0
-9.9208392090051E-3 0
-2.18883109453289E-3 0
-1.4524812526015927E-2 0
-1.97046563206441E-3 0
-9.797812964435644E-3 0
-1.220165171414168E-2 0
7.443609339084786E-3 0
3.697133464906011E-3 0
-1.3071067757202013E-3 0
-8.411895252334671E-4 0
-8.749000857688248E-6 0
-2.6434023647649517E-5 0
-1.1281256048862918E-5 0
2.904301282550254E-5 0
4.0824980791986636E-5 0
4.9803647384744144E-5 0
3.669954787958995E-5 0
1.1794232243078148E-5 0
6.631734832863237E-5 0
3.418151317239851E-4 0
8.814862956497199E-4 0
1.267417312973185E-3 0
4.688156902136232E-4 0
-5.752942182637738E-4 0
3.5164545965897663E-3 0
4.512897579209358E-3 0
-4.436052576891192E-3 0
8.811071358307003E-4 0
4.8035577121695633E-1 0
1.646903124422294E-3 0
-4.060335225619477E-3 0
4.7800712223065E-3 0
2.9531338679477993E-3 0
-1.065778733211753E-3 0
-1.0606967612873924E-3 0
1.4168410270907897E-4 0
1.0535692754911304E-5 0
6.379764617451509E-5 0
8.226950788482447E-5 0
9.15180694173496E-5 0
9.009545776595288E-5 0
7.199580463107985E-5 0
1.4493819167790193E-4 0
5.029931925225851E-4 0
1.075554942889166E-3 0
1.4311866060976136E-3 0
8.020145847005248E-4 0
-1.637437972246958E-5 0
4.251873923948271E-3 0
7.385109610132845E-3 0
-1.2854959690272396E-2 0
-9.501976415959195E-3 0
-1.6432262357334504E-3 0
-1.3257669846038742E-2 0
-1.0446052515531376E-3 0
-8.660423078450968E-3 0
-1.1452285916788152E-2 0
7.606593743086055E-3 0
3.6824023476912226E-3 0
-1.262090809799208E-3 0
-8.126988866930789E-4 0
3.6973672825824304E-5 0
9.701727696828287E-5 0
3.402720088817391E-5 0
5.041135799356914E-5 0
4.462834042703623E-5 0
3.7148314308586107E-5 0
4.43235234435036E-5 0
1.2371277323884258E-4 0
3.235699601666697E-4 0
6.154248675497365E-4 0
8.812391657681698E-4 0
7.95323902212359E-4 0
-4.2548348390379815E-4 0
-1.280532216210818E-3 0
3.3892497744473287E-3 0
4.167315609253345E-3 0
-4.361757777154881E-3 0
1.6469031244222838E-3 0
4.8088197296951046E-1 0
2.446094321381437E-3 0
-4.1046033703100995E-3 0
5.118595117534915E-3 0
2.7253601108188255E-3 0
-9.186996465062828E-4 0
-1.0913219162340863E-3 0
1.319830500899088E-4 0
9.293772932201516E-5 0
7.898693333735355E-5 0
1.100202246884432E-4 0
1.1676502948176012E-4 0
1.2874732719370547E-4 0
2.4046293102908802E-4 0
4.998795252553689E-4 0
8.476622707965727E-4 0
1.1825606157891135E-3 0
1.3105662083417414E-3 0
7.421513836704401E-4 0
-4.374274377108444E-4 0
3.961539315707972E-3 0
7.439386449614363E-3 0
-1.2403153965297621E-2 0
-9.400548999487345E-3 0
-9.245708081410503E-4 0
-1.2483206013819527E-2 0
-1.3008712808075765E-4 0
-7.991297473371833E-3 0
-1.107275889610252E-2 0
7.750220254071596E-3 0
3.6297119827898936E-3 0
-1.2212500057806523E-3 0
-7.84058508008044E-4 0
1.1905698284977243E-4 0
1.1715403800699197E-4 0
3.948065372140079E-5 0
5.1191761872195335E-5 0
4.983428092557067E-5 0
6.34255777804687E-5 0
1.2328617907211557E-4 0
2.2778590004287035E-4 0
3.235052763526616E-4 0
3.421954408710065E-4 0
1.91105721653675E-4 0
1.0887079235514266E-5 0
-8.606323926883406E-4 0
-1.3968432216541434E-3 0
3.2305369208711983E-3 0
4.520614298103388E-3 0
-4.060335225619475E-3 0
2.446094321381418E-3 0
4.8096378941840157E-1 0
3.0978564287086167E-3 0
-4.449570151390813E-3 0
5.513075549126129E-3 0
2.4934175137260287E-3 0
-8.729056127119166E-4 0
-1.0164795743099044E-3 0
-1.006430311347684E-3 0
1.725912777507783E-4 0
1.3803137191707965E-4 0
1.211635698548144E-4 0
1.7632279210012878E-4 0
2.639527762326007E-4 0
4.23376342725023E-4 0
6.278245857912661E-4 0
8.491201538214995E-4 0
1.0438246633583744E-3 0
1.0202560466479672E-3 0
-4.619882065793218E-5 0
-1.2283879801151792E-3 0
3.722606387518061E-3 0
6.893912116767793E-3 0
-1.2139904274713608E-2 0
-8.627809953801737E-3 0
-1.3167922472631706E-4 0
-1.183983355012114E-2 0
5.345686208368994E-4 0
-7.704006787646112E-3 0
-1.100439225081696E-2 0
7.999866913585467E-3 0
3.476503830294613E-3 0
-1.1202677585131363E-3 0
-1.1462497301548114E-3 0
7.302748090080598E-5 0
1.5110106020161713E-4 0
5.054291269357166E-5 0
5.114176051408689E-5 0
7.066925700031828E-5 0
9.406891334660692E-5 0
1.232954275486935E-4 0
1.2377625923572924E-4 0
6.588442831060464E-5 0
-1.8927379292626685E-5 0
4.809730018561201E-5 0
2.2664707909334236E-5 0
-9.381070705625997E-4 0
-1.3008049442061896E-3 0
3.134564073185729E-3 0
4.780071222306511E-3 0
-4.104603370310133E-3 0
3.097856428708652E-3 0
4.805984788132607E-1 0
3.7859064755421906E-3 0
-5.042303348164391E-3 0
6.013721426674403E-3 0
2.2952732756171684E-3 0
-9.658840646028862E-4 0
-1.395703431641691E-3 0
-6.979225493153764E-4 0
1.83366738801697E-4 0
2.1631609821715818E-4 0
1.6948083526339416E-4 0
2.360332568219801E-4 0
3.3376975922570654E-4 0
4.481742226110066E-4 0
5.515496815949631E-4 0
5.901538126460573E-4 0
4.0746242461626097E-4 0
1.688124248462632E-4 0
-6.725166519017601E-4 0
-1.498629736840072E-3 0
3.487921656541336E-3 0
7.278746004876633E-3 0
-1.1540172668357877E-2 0
-8.043446275935942E-3 0
5.111258073286636E-4 0
-1.1592324972847767E-2 0
1.0002032014858938E-3 0
-7.656622373429537E-3 0
-1.1135126595694222E-2 0
8.46677913908222E-3 0
3.5576956899001553E-3 0
-1.5864617472727397E-3 0
-7.683951913075311E-4 0
4.5956361173480695E-5 0
1.5738065964539255E-4 0
7.660640774956555E-5 0
5.921903319539953E-5 0
6.770019880230656E-5 0
6.478185109239119E-5 0
4.368464796577556E-5 0
1.246227382837864E-5 0
2.4747811383145973E-5 0
3.0948313869408446E-5 0
6.657806324316159E-5 0
-1.2608829591932268E-5 0
-9.310443007693497E-4 0
-1.2266577822856552E-3 0
2.9531338679478084E-3 0
5.118595117534905E-3 0
-4.4495701513908E-3 0
3.7859064755421997E-3 0
4.7986614925921167E-1 0
4.673631992466626E-3 0
-5.864562636893575E-3 0
6.553716891385521E-3 0
2.573317422634876E-3 0
5.002483229197284E-3 0
-8.90274988365617E-4 0
-6.083345111503178E-4 0
1.3387447073975731E-4 0
2.5226679861600185E-4 0
2.1740781299721095E-4 0
2.478776880062989E-4 0
2.968569523062146E-4 0
3.1101826103604416E-4 0
2.5793408687432607E-4 0
1.3839106633140312E-4 0
9.784969749221294E-5 0
-1.2504538559715313E-6 0
-9.085966696863549E-4 0
-1.4060288000141451E-3 0
3.549047999933507E-3 0
7.494095199218333E-3 0
-1.1142367177042378E-2 0
-7.739299773750755E-3 0
9.874017640563752E-4 0
-1.1810389535075553E-2 0
1.6234328925257484E-3 0
-7.86473622323512E-3 0
-1.0978878942086686E-2 0
8.636793215989851E-3 0
4.251620594949137E-3 0
-1.221316654467767E-3 0
-6.694204763171726E-4 0
5.52937428188455E-5 0
1.2550346911614663E-4 0
7.804982183043279E-5 0
5.694861119804009E-5 0
4.707820723442279E-5 0
3.831895456026852E-5 0
3.5872852575188384E-5 0
4.8819220484631605E-5 0
2.8010338006813535E-5 0
-2.3872095717490928E-5 0
4.0125960019930156E-5 0
8.206651660831764E-6 0
-9.902279128424347E-4 0
-1.0657787332117468E-3 0
2.7253601108188246E-3 0
5.5130755491261275E-3 0
-5.0423033481643955E-3 0
4.673631992466623E-3 0
4.788780137640414E-1 0
5.720633763775615E-3 0
-6.339516060001325E-3 0
6.28050434008769E-3 0
1.1395452707045058E-2 0
3.5092895599001406E-3 0
-9.23474572438162E-4 0
-4.188532384670475E-4 0
1.3004789371179936E-4 0
2.162433759644977E-4 0
2.0386508807001584E-4 0
1.9787397223450844E-4 0
1.7931986426625917E-4 0
1.3337929785174643E-4 0
1.147953634472037E-4 0
6.556233457001414E-5 0
-2.7034220643159304E-5 0
-7.31374373967992E-5 0
-8.804769237542761E-4 0
-1.3642322540628254E-3 0
3.6187254668384335E-3 0
7.7027748148667695E-3 0
-1.1031589959290712E-2 0
-7.668791843402059E-3 0
1.6200599972938851E-3 0
-1.2540975944132535E-2 0
2.5110777573710817E-3 0
-8.523709827627523E-3 0
-1.1051043353794508E-2 0
6.9365659381910765E-3 0
3.1947928492855665E-3 0
-1.372392005334393E-3 0
-6.354214540104719E-4 0
1.236737277949771E-4 0
1.1290925733903355E-4 0
5.7529648847270906E-5 0
4.7768909715741194E-5 0
4.682606240138495E-5 0
4.883799991077567E-5 0
4.148589848598251E-5 0
1.4271759526493707E-5 0
-2.0825045590490098E-5 0
-2.7891093328787262E-5 0
2.540275383059075E-5 0
7.982110947980686E-5 0
-1.060696761287387E-3 0
-9.186996465062854E-4 0
2.493417513726031E-3 0
6.013721426674401E-3 0
-5.864562636893579E-3 0
5.720633763775604E-3 0
4.777311817995603E-1 0
6.405270609706885E-3 0
-5.7057746038717315E-3 0
-1.5298627966698659E-2 0
8.713971691271279E-3 0
3.52395449558603E-3 0
-1.2101829732087243E-3 0
-3.508123686307042E-4 0
1.90777724902907E-4 0
1.7725544252254608E-4 0
1.418268288428784E-4 0
1.2438704103818362E-4 0
1.085407047498424E-4 0
9.341812444469197E-5 0
5.488166654901091E-5 0
4.048315631133811E-5 0
-5.359293880165964E-6 0
-3.654006378482002E-5 0
-8.477754408745087E-4 0
-1.2768160873319655E-3 0
3.6154172301689426E-3 0
7.99061577783282E-3 0
-1.1139481239190063E-2 0
-7.866071066757255E-3 0
2.510955225951639E-3 0
-1.3290982194082548E-2 0
3.0381203314778895E-3 0
-8.489846497775658E-3 0
-5.403611322875846E-3 0
4.901855567087889E-3 0
3.4809621327712196E-3 0
-1.4140844990294145E-3 0
-7.777302720676027E-4 0
1.289047071887754E-4 0
1.2862223945678985E-4 0
5.1298843961943756E-5 0
4.346368975581627E-5 0
4.437432213877093E-5 0
3.670183186600283E-5 0
2.1979658660544835E-5 0
1.572976150830592E-5 0
5.5245428742333615E-6 0
-1.7926597995577998E-6 0
-6.58073985594088E-6 0
1.4168410270908263E-4 0
-1.0913219162340968E-3 0
-8.729056127119016E-4 0
2.29527327561715E-3 0
6.5537168913855385E-3 0
-6.3395160600013475E-3 0
6.4052706097069E-3 0
4.774159203232952E-1 0
5.095850756052738E-3 0
-9.522347184371453E-3 0
-1.1591177302813113E-2 0
8.66903159376327E-3 0
4.105250385435269E-3 0
-1.3388206230367343E-3 0
-5.272654681692489E-4 0
1.716724962747863E-4 0
1.514955897139528E-4 0
9.662122361108784E-5 0
8.468127733208951E-5 0
7.526468235904153E-5 0
4.330067454342046E-5 0
2.3850750451890622E-5 0
1.5232258601873113E-5 0
-4.233383908299683E-5 0
3.7741819306469618E-6 0
-8.029594269685034E-4 0
-1.2147085228952368E-3 0
3.480898389497741E-3 0
8.469675460366057E-3 0
-1.0977243430390405E-2 0
-8.52298678032864E-3 0
3.0383314761229362E-3 0
-1.3140318393699515E-2 0
2.138659756825133E-3 0
3.9032356135698222E-3 0
-3.7193792025825047E-3 0
4.823339461951647E-3 0
3.607664560215632E-3 0
-1.300593150130604E-3 0
-8.326362085567063E-4 0
8.496278990264577E-5 0
1.1681690435407385E-4 0
4.0714773493621364E-5 0
2.787460727867485E-5 0
2.597037414039184E-5 0
1.826805942798747E-5 0
2.1956282088285096E-6 0
-6.950281301482622E-6 0
-1.3120786783378887E-5 0
1.1552834125421654E-5 0
1.0535692754907309E-5 0
1.3198305008991744E-4 0
-1.0164795743099154E-3 0
-9.658840646028749E-4 0
2.5733174226348827E-3 0
6.28050434008767E-3 0
-5.7057746038717185E-3 0
5.095850756052752E-3 0
4.7841906608797696E-1 0
1.3496587903405368E-3 0
-7.157648146822128E-3 0
-1.1622468769370441E-2 0
8.276814797200232E-3 0
4.3350944083136575E-3 0
-1.221203405975559E-3 0
-6.121090697722776E-4 0
1.0216475561128011E-4 0
1.0960196692582831E-4 0
5.8919535827807345E-5 0
4.482067586116233E-5 0
3.277250760222669E-5 0
1.4472190047320949E-5 0
-1.1570773818648733E-5 0
-4.602966851455541E-6 0
-1.50729908716324E-5 0
4.814474039574594E-5 0
-7.748206852922205E-4 0
-1.1137040601681555E-3 0
3.5617195067914904E-3 0
8.638860336044496E-3 0
-1.1050205473208945E-2 0
-8.489608067943038E-3 0
2.138693493493354E-3 0
-1.2766432805848705E-2 0
-2.0499633234021687E-2 0
1.3979874941129845E-3 0
-9.961458671577475E-3 0
-1.4606331838635888E-2 0
1.0760383568372793E-2 0
5.429475235694875E-3 0
-1.6520527691414719E-3 0
-8.615649261889736E-4 0
1.550072922631034E-5 0
1.0140911615432001E-4 0
1.2107583973443733E-4 0
6.964570851740951E-5 0
1.5039493686406661E-4 0
1.5039493686408038E-4 0
6.64297191286366E-5 0
1.3567859699829663E-4 0
6.379764617451422E-5 0
9.293772932201568E-5 0
-1.0064303113476824E-3 0
-1.395703431641694E-3 0
5.002483229197286E-3 0
1.1395452707045058E-2 0
-1.529862796669866E-2 0
-9.522347184371458E-3 0
1.3496587903405357E-3 0
7.136300769284137E-1 0
-4.947040302114498E-2 0
3.7567981201516866E-2 0
-3.823733706421813E-2 0
-2.2644613123765377E-2 0
1.3823622116867862E-2 0
4.874496217818834E-3 0
-1.533498358965335E-3 0
-5.760263246049696E-4 0
2.062929720465418E-4 0
-2.885136968775945E-5 0
-6.629376689874214E-5 0
-1.0554502475784077E-3 0
-1.0554502475783867E-3 0
-7.05400260068063E-5 0
-9.5704941814241E-6 0
1.539711855826915E-4 0
-4.5585437560339805E-4 0
-1.8007076440916463E-3 0
5.457371869512966E-3 0
1.2541103250504606E-2 0
-2.0057102034706537E-2 0
-4.331265233357717E-2 0
4.421579183417053E-2 0
-5.559963146924763E-2 0
1.3979874941143224E-3 0
-1.0898814702124738E-2 0
9.9097192979488E-4 0
-7.298752563792024E-3 0
-1.0693416372186468E-2 0
7.783843091111297E-3 0
3.8927551503625973E-3 0
-1.2733107791159939E-3 0
-6.824740537665229E-4 0
-1.3212736922049582E-5 0
2.5521679976514617E-6 0
-2.4182010723061446E-5 0
-1.0359900985844702E-5 0
1.549143677889523E-5 0
4.116417159593854E-5 0
4.845192436361161E-5 0
8.226950788482742E-5 0
7.898693333735566E-5 0
1.7259127775077864E-4 0
-6.979225493153786E-4 0
-8.90274988365618E-4 0
3.5092895599001463E-3 0
8.713971691271274E-3 0
-1.1591177302813121E-2 0
-7.157648146822111E-3 0
-4.947040302114499E-2 0
6.134544010760234E-1 0
-3.600723612530109E-2 0
2.7434922273214236E-2 0
-2.7788706808957873E-2 0
-1.641547852144079E-2 0
1.016597372259089E-2 0
3.6675803070867668E-3 0
-9.61220495995596E-4 0
-3.391440005416987E-4 0
9.043970146751325E-5 0
5.1914505439603994E-5 0
1.097605721028245E-4 0
7.364204305802557E-5 0
-8.102730079323661E-5 0
-9.883648406442526E-5 0
-1.0831713302047136E-4 0
-6.755699869591368E-5 0
-5.764059176228342E-4 0
-1.1198859770533485E-3 0
3.5038263649770822E-3 0
9.758533040311858E-3 0
-1.5485876331897182E-2 0
-2.9867703263861598E-2 0
2.9983705537424524E-2 0
-9.96145867157929E-3 0
9.910067811854592E-4 0
-1.0938860346131722E-2 0
9.406674641675905E-4 0
-7.356512461872243E-3 0
-1.075492167836786E-2 0
7.722707981477501E-3 0
3.8354045766959893E-3 0
-1.3271665641859903E-3 0
-7.350380237399912E-4 0
-6.0619163971256356E-5 0
-2.479234574207342E-5 0
-3.6932976026750203E-6 0
3.5111863564271554E-5 0
5.4426828437568495E-5 0
8.600196509908102E-5 0
9.151806941735236E-5 0
1.1002022468844672E-4 0
1.3803137191708057E-4 0
1.8336673880169597E-4 0
-6.083345111503135E-4 0
-9.234745724381612E-4 0
3.52395449558603E-3 0
8.669031593763274E-3 0
-1.162246876937045E-2 0
3.7567981201516866E-2 0
-3.600723612530107E-2 0
6.135144015605359E-1 0
-3.5932089594370095E-2 0
2.7521133212177227E-2 0
-2.7696245189231507E-2 0
-1.6320998664123326E-2 0
1.0260834472748098E-2 0
3.7615531239775985E-3 0
-8.761787363450806E-4 0
-2.771881933592691E-4 0
1.1541570307694214E-4 0
-3.845851450037335E-5 0
-1.2002202323452534E-4 0
-8.577122769240096E-5 0
-1.531158171661891E-4 0
-1.5296880350057363E-4 0
-2.1032253879408924E-4 0
-5.8609984698042196E-5 0
-7.765654179335172E-4 0
-8.827808908409069E-4 0
2.852706744093031E-3 0
1.0794701537913296E-2 0
-1.7397774230793476E-2 0
-2.905189775618303E-2 0
-1.4606331838634167E-2 0
-7.298524528335314E-3 0
9.408739710050432E-4 0
-1.0996911775989396E-2 0
8.77769534308273E-4 0
-7.420702429700849E-3 0
-1.081585338630691E-2 0
7.671262036211897E-3 0
3.7959090008103037E-3 0
-1.3593964909592888E-3 0
-7.743594218982767E-4 0
-8.377867562698251E-5 0
1.7467151046259997E-5 0
3.143144613444052E-5 0
5.578202360234147E-5 0
9.190660321701975E-5 0
9.009545776595433E-5 0
1.1676502948176117E-4 0
1.2116356985481366E-4 0
2.1631609821715713E-4 0
1.338744707397589E-4 0
-4.1885323846704565E-4 0
-1.210182973208717E-3 0
4.105250385435271E-3 0
8.276814797200232E-3 0
-3.823733706421814E-2 0
2.743492227321423E-2 0
-3.5932089594370095E-2 0
6.136013384502406E-1 0
-3.583930187263841E-2 0
2.7610687585395904E-2 0
-2.761947412377829E-2 0
-1.6261365397195856E-2 0
1.031380030688051E-2 0
3.82279410322796E-3 0
-8.348815682238931E-4 0
-2.7776114850052585E-4 0
1.998337913023221E-4 0
1.2855155078760945E-4 0
-6.70687453311546E-5 0
-1.4942183894720476E-4 0
-2.014771746662755E-4 0
-1.697248714745304E-4 0
-2.143933309204959E-4 0
-9.938511846777805E-5 0
-8.201835282457213E-4 0
-8.742100762685333E-4 0
2.5648704557972362E-3 0
1.118829218519487E-2 0
-1.812318695921254E-2 0
1.0760383568371463E-2 0
-1.0692612744812452E-2 0
-7.355807727829252E-3 0
8.776596958465762E-4 0
-1.106464897739494E-2 0
8.056108978410241E-4 0
-7.495936231173496E-3 0
-1.0887478976917607E-2 0
7.619819201750735E-3 0
3.7804381648101648E-3 0
-1.3838616475236058E-3 0
-7.982245839350065E-4 0
-1.0584983583471268E-4 0
-1.4373057457438189E-5 0
4.247101434114359E-5 0
5.250310219694196E-5 0
7.199580463108483E-5 0
1.2874732719370292E-4 0
1.763227921001248E-4 0
1.6948083526339364E-4 0
2.52266798616003E-4 0
1.300478937118078E-4 0
-3.508123686307038E-4 0
-1.3388206230367362E-3 0
4.335094408313659E-3 0
-2.2644613123765374E-2 0
-2.7788706808957862E-2 0
2.752113321217722E-2 0
-3.5839301872638445E-2 0
6.136936548903179E-1 0
-3.575664175647542E-2 0
2.7673215549327997E-2 0
-2.7587439900991148E-2 0
-1.624613531125316E-2 0
1.0344840423386362E-2 0
3.896979643652315E-3 0
-7.925163376462089E-4 0
-2.4590090572374694E-4 0
1.5284041695806593E-4 0
-5.6359662244430884E-5 0
-1.6782407032484952E-4 0
-1.459829983427845E-4 0
-1.4543655773172537E-4 0
-1.9883704807363206E-4 0
-1.933835334276568E-4 0
-2.45102823017431E-4 0
-6.188821612437407E-4 0
-1.2632122981543596E-3 0
3.3821808071150842E-3 0
1.057883765116015E-2 0
5.429475235695663E-3 0
7.785834896037557E-3 0
-1.0753348286070408E-2 0
-7.421982846272505E-3 0
8.021951769337493E-4 0
-1.1157337685145853E-2 0
6.880026035512641E-4 0
-7.63977207116697E-3 0
-1.1029428678736143E-2 0
7.528703384448033E-3 0
3.7763367326621696E-3 0
-1.37508966826765E-3 0
-8.5110773478963E-4 0
-3.404748121077692E-5 0
6.493051059041879E-7 0
-4.69814916614166E-6 0
1.4493819167790944E-4 0
2.404629310290914E-4 0
2.6395277623259347E-4 0
2.3603325682197617E-4 0
2.1740781299721816E-4 0
2.1624337596450104E-4 0
1.9077772490290582E-4 0
-5.272654681692481E-4 0
-1.2212034059755589E-3 0
1.3823622116867872E-2 0
-1.6415478521440797E-2 0
-2.76962451892315E-2 0
2.7610687585395928E-2 0
-3.575664175647544E-2 0
6.137752895019088E-1 0
-3.566788321728029E-2 0
2.7761332857083373E-2 0
-2.7531430889460425E-2 0
-1.6258900965203944E-2 0
1.0468418336944868E-2 0
4.011277828808703E-3 0
-8.727035729300422E-4 0
-3.129751361813756E-4 0
-7.001800861217459E-5 0
-1.1418783796436704E-4 0
-3.651169217285982E-5 0
-1.6966833598399102E-4 0
-2.4431137852730036E-4 0
-2.922430450885682E-4 0
-2.1250606107747427E-4 0
-2.8392111883950255E-4 0
-4.946966033630003E-4 0
-1.4217318729401517E-3 0
3.7802617471636925E-3 0
-1.6520527691418051E-3 0
3.8966381687156005E-3 0
7.725472871671614E-3 0
-1.0820106529272795E-2 0
-7.508177174918925E-3 0
6.752981172113306E-4 0
-1.1347335754901067E-2 0
4.1967681804695863E-4 0
-7.98009058499599E-3 0
-1.1401603926553639E-2 0
7.3725631193319666E-3 0
3.7306801813103006E-3 0
-1.4667622859665646E-3 0
-7.300097707135852E-4 0
-8.797516121317841E-6 0
2.375977377608581E-4 0
5.02993192522594E-4 0
4.998795252553709E-4 0
4.233763427250136E-4 0
3.3376975922569624E-4 0
2.478776880062967E-4 0
2.0386508807001663E-4 0
1.772554425225426E-4 0
1.716724962747829E-4 0
-6.121090697722749E-4 0
4.874496217818822E-3 0
1.01659737225909E-2 0
-1.6320998664123326E-2 0
-2.761947412377828E-2 0
2.7673215549328004E-2 0
-3.566788321728031E-2 0
6.139522793649416E-1 0
-3.536993946404199E-2 0
2.8096113956444395E-2 0
-2.73125362173137E-2 0
-1.62019982295966E-2 0
1.0420024086303789E-2 0
4.198785611324431E-3 0
-9.040189684298471E-4 0
-2.795570940049582E-4 0
7.800414738293532E-5 0
-2.465110307630888E-4 0
-4.824298572284258E-4 0
-4.865879758924035E-4 0
-3.7417728300711406E-4 0
-2.748471588933415E-4 0
-2.117248589262724E-4 0
-1.8362892326688362E-4 0
-5.920019447938191E-4 0
-1.2260226065856754E-3 0
-8.615649261888743E-4 0
-1.2669833107606956E-3 0
3.8396272353774527E-3 0
7.662087806795859E-3 0
-1.0914668785009267E-2 0
-7.675118701406378E-3 0
3.962204789812008E-4 0
-1.175864477862002E-2 0
-1.4973684236441805E-4 0
-8.694205724846776E-3 0
-1.2144330549428742E-2 0
6.87985282464581E-3 0
3.8344831238196933E-3 0
-1.3178735130675284E-3 0
-8.751167755353083E-5 0
1.0863663967326865E-3 0
1.0755549428891668E-3 0
8.476622707965685E-4 0
6.278245857912635E-4 0
4.481742226110031E-4 0
2.9685695230621036E-4 0
1.9787397223450812E-4 0
1.4182682884288008E-4 0
1.514955897139505E-4 0
1.0216475561128245E-4 0
-1.5334983589653385E-3 0
3.667580307086771E-3 0
1.0260834472748085E-2 0
-1.6261365397195877E-2 0
-2.7587439900991162E-2 0
2.776133285708341E-2 0
-3.536993946404197E-2 0
6.145935619471979E-1 0
-3.4440215159307376E-2 0
2.907841509334662E-2 0
-2.699530748378496E-2 0
-1.6097486850560002E-2 0
1.1082111451330666E-2 0
3.749526532009717E-3 0
-1.0418981494813625E-3 0
-8.820838017096494E-4 0
-1.293471126213007E-3 0
-1.2560607333719088E-3 0
-9.015303079820255E-4 0
-4.8543789430576824E-4 0
-2.551607701394339E-4 0
-1.844090040062296E-4 0
-1.8533895921959124E-4 0
-1.3755453171449794E-4 0
-5.755367448971776E-4 0
1.5500729226291833E-5 0
-6.735688989515621E-4 0
-1.3208430393179737E-3 0
3.7816466625951654E-3 0
7.572487598809314E-3 0
-1.1099172249676471E-2 0
-8.032051706586748E-3 0
-1.5148000821156146E-4 0
-1.248557463046791E-2 0
-1.014199190535567E-3 0
-9.841123777690284E-3 0
-1.280293152547669E-2 0
7.252863197794722E-3 0
4.131828138454633E-3 0
2.629375451930354E-6 0
1.1363019211398358E-3 0
1.4311866060976095E-3 0
1.1825606157891133E-3 0
8.49120153821504E-4 0
5.515496815949709E-4 0
3.1101826103605224E-4 0
1.7931986426626275E-4 0
1.243870410381832E-4 0
9.662122361109842E-5 0
1.0960196692582747E-4 0
-5.760263246049442E-4 0
-9.612204959956058E-4 0
3.7615531239776107E-3 0
1.0313800306880526E-2 0
-1.6246135311253147E-2 0
-2.7531430889460445E-2 0
2.8096113956444367E-2 0
-3.4440215159307376E-2 0
6.162209035818745E-1 0
-3.2404502303698575E-2 0
3.0947323015969842E-2 0
-2.565080900662868E-2 0
-1.6796822378745663E-2 0
1.0036140773308557E-2 0
1.687522728486259E-3 0
-4.05549676220711E-3 0
-3.501297898084651E-3 0
-2.3172831027752847E-3 0
-1.2552725100452205E-3 0
-4.8377658933284234E-4 0
-1.6417249644947222E-4 0
-1.516272675633448E-4 0
-1.8744632992629683E-4 0
-1.6345593597667723E-4 0
-9.808810160273239E-5 0
1.0140911615432294E-4 0
-2.410952732825825E-6 0
-7.256504676088938E-4 0
-1.3739491353762694E-3 0
3.716733833409178E-3 0
7.416187065745199E-3 0
-1.1489479484094336E-2 0
-8.661614667587948E-3 0
-8.940856828440618E-4 0
-1.3290636180319617E-2 0
-1.9393479797730569E-3 0
-1.005700354068649E-2 0
-1.3123313523094031E-2 0
7.662839682967564E-3 0
4.782399636997384E-3 0
3.1251673118583805E-4 0
8.020145847005178E-4 0
1.3105662083417418E-3 0
1.0438246633583809E-3 0
5.901538126460598E-4 0
2.579340868743196E-4 0
1.333792978517371E-4 0
1.0854070474984395E-4 0
8.468127733208115E-5 0
5.891953582780481E-5 0
2.0629297204653206E-4 0
-3.3914400054168724E-4 0
-8.761787363450831E-4 0
3.8227941032279544E-3 0
1.0344840423386369E-2 0
-1.6258900965203934E-2 0
-2.7312536217313707E-2 0
2.9078415093346598E-2 0
-3.240450230369857E-2 0
6.189928077315942E-1 0
-3.0130678999602322E-2 0
3.140353552651515E-2 0
-2.7790500636117297E-2 0
-1.7987356907372107E-2 0
7.20993175239858E-3 0
-1.1642291340415165E-3 0
-5.73712732571459E-3 0
-3.49962592836289E-3 0
-1.2962565746519373E-3 0
-2.4310829434022701E-4 0
-4.1634195333513715E-5 0
-1.412084151182715E-4 0
-1.934549435516651E-4 0
-1.771254268320686E-4 0
-9.819355971345779E-5 0
1.2107583973442855E-4 0
1.3589334883547E-5 0
-4.864909849039716E-5 0
-7.804077589902126E-4 0
-1.4414910783771885E-3 0
3.628763499824663E-3 0
7.207243777647216E-3 0
-1.2082209202059751E-2 0
-9.44414783404018E-3 0
-1.6119633586120599E-3 0
-1.4544981470284876E-2 0
-2.89586463701709E-3 0
-1.0609914930721198E-2 0
-1.2639621706151164E-2 0
8.417408524545625E-3 0
5.323614149654884E-3 0
-1.6374379722461868E-5 0
7.421513836704432E-4 0
1.020256046647957E-3 0
4.074624246162514E-4 0
1.3839106633139637E-4 0
1.1479536344719882E-4 0
9.341812444469029E-5 0
7.526468235904015E-5 0
4.482067586116154E-5 0
-2.8851369687758947E-5 0
9.043970146750164E-5 0
-2.771881933592688E-4 0
-8.348815682238856E-4 0
3.8969796436523238E-3 0
1.0468418336944868E-2 0
-1.62019982295966E-2 0
-2.6995307483784946E-2 0
3.0947323015969794E-2 0
-3.0130678999602332E-2 0
6.23381003221605E-1 0
-2.7008321696680104E-2 0
3.2762864666485E-2 0
-2.7948655380816832E-2 0
-2.1573401632223644E-2 0
2.5501206125058073E-3 0
-1.1641281442023618E-3 0
-4.056399166904714E-3 0
-8.805452732279307E-4 0
7.598062895813292E-5 0
-1.1122965299574457E-4 0
-1.7099860431208708E-4 0
-1.5032794237107921E-4 0
-1.4653170689029045E-4 0
-1.0923364249745326E-4 0
6.964570851741385E-5 0
-1.530526985723199E-5 0
-1.3943708630404476E-5 0
-8.152565748927318E-5 0
-8.229604503485113E-4 0
-1.4706362489258083E-3 0
3.5514984835999038E-3 0
6.839824057214854E-3 0
-1.2363743818191733E-2 0
-9.526018184868836E-3 0
-2.1772703776392513E-3 0
-1.4767884110183283E-2 0
-2.6422303936147517E-3 0
-1.0138943399287685E-2 0
-1.15708842481201E-2 0
7.698763259878942E-3 0
4.2518739239482736E-3 0
-4.3742743771083594E-4 0
-4.619882065792904E-5 0
1.6881242484625744E-4 0
9.784969749220197E-5 0
6.556233457001729E-5 0
5.48816665490147E-5 0
4.330067454342438E-5 0
3.277250760222792E-5 0
-6.629376689873722E-5 0
5.191450543960463E-5 0
1.154157030769445E-4 0
-2.777611485005362E-4 0
-7.925163376462137E-4 0
4.011277828808722E-3 0
1.0420024086303803E-2 0
-1.6097486850559995E-2 0
-2.565080900662864E-2 0
3.140353552651515E-2 0
-2.7008321696680118E-2 0
6.238871890218024E-1 0
-3.0449400467037972E-2 0
3.44866397682697E-2 0
-2.9729057912411143E-2 0
-2.157856451801511E-2 0
7.222374995945614E-3 0
1.6659498355925805E-3 0
-1.0116585852504017E-3 0
-3.153018253809722E-4 0
-3.374186781239501E-5 0
-8.839061955758804E-5 0
-4.1709915606889484E-5 0
-1.0272046615781915E-4 0
-7.893641067532185E-5 0
1.5039493686406743E-4 0
-6.6066862081150336E-6 0
1.001548074261494E-6 0
1.9585395518841125E-5 0
-1.0757164724059646E-4 0
-8.680021584140622E-4 0
-1.5398034833764632E-3 0
3.7582432557536102E-3 0
7.413630235570647E-3 0
-1.2840098852063535E-2 0
-9.927010708335139E-3 0
-2.0856496318846507E-3 0
-1.6163132144983296E-2 0
-2.635616521210694E-3 0
-1.0695022838619197E-2 0
-1.3324802269784816E-2 0
7.385109610132842E-3 0
3.961539315707978E-3 0
-1.2283879801151783E-3 0
-6.725166519017621E-4 0
-1.2504538559679962E-6 0
-2.7034220643159792E-5 0
4.0483156311340795E-5 0
2.385075045189005E-5 0
1.4472190047324228E-5 0
-1.055450247578401E-3 0
1.0976057210282901E-4 0
-3.8458514500380325E-5 0
1.9983379130232386E-4 0
-2.459009057237487E-4 0
-8.727035729300483E-4 0
4.198785611324425E-3 0
1.108211145133066E-2 0
-1.6796822378745663E-2 0
-2.7790500636117287E-2 0
3.2762864666484995E-2 0
-3.0449400467037976E-2 0
6.369932911957926E-1 0
-2.988945591639939E-2 0
3.44853435541891E-2 0
-2.7942769696104455E-2 0
-1.8001557709530276E-2 0
1.0060894135055752E-2 0
3.714959952805451E-3 0
-8.637506711418127E-4 0
-3.5226431742087255E-4 0
1.838444757813269E-4 0
1.1301502140010108E-4 0
-1.201074472583676E-4 0
8.085455993442345E-5 0
1.5039493686408288E-4 0
1.1738222001176472E-5 0
3.0417017887327182E-5 0
2.9313201661865038E-5 0
-1.2651246051567331E-5 0
-1.7153057586337652E-5 0
-6.569685733036943E-4 0
-1.2416336450014433E-3 0
3.9710611006787125E-3 0
7.379625011937087E-3 0
-1.3322525928537228E-2 0
-1.0695524161017786E-2 0
-2.6356165212107017E-3 0
-1.6163132144983296E-2 0
-2.0870087913912832E-3 0
-9.920839209005093E-3 0
-1.2854959690272392E-2 0
7.4393864496143615E-3 0
3.7226063875180604E-3 0
-1.4986297368400694E-3 0
-9.085966696863536E-4 0
-7.313743739679926E-5 0
-5.359293880170208E-6 0
1.5232258601876476E-5 0
-1.1570773818649597E-5 0
-1.05545024757838E-3 0
7.364204305802732E-5 0
-1.2002202323451571E-4 0
1.2855155078760693E-4 0
1.5284041695807E-4 0
-3.129751361813692E-4 0
-9.040189684298528E-4 0
3.7495265320097193E-3 0
1.0036140773308564E-2 0
-1.798735690737213E-2 0
-2.7948655380816843E-2 0
3.448663976826969E-2 0
-2.988945591639941E-2 0
6.369932911957926E-1 0
-3.0449559448175074E-2 0
3.2763586547895115E-2 0
-2.7792070182155175E-2 0
-1.6794946339870744E-2 0
1.1081699156767481E-2 0
4.195593600392517E-3 0
-8.647103399690224E-4 0
-2.5876002095471905E-4 0
2.183479508753381E-4 0
-5.8530313852773743E-5 0
1.2535163924741515E-4 0
6.642971912863043E-5 0
3.228743901078751E-5 0
4.35782030185845E-5 0
5.352906426786905E-5 0
6.72068807393017E-5 0
9.619504353263852E-5 0
1.7038248701389195E-4 0
-4.7481850957872494E-5 0
-4.3655354925030133E-4 0
4.251415737020997E-3 0
7.698800436021336E-3 0
-1.1570927875546023E-2 0
-1.0138474736298995E-2 0
-2.6435568937114924E-3 0
-1.476372359929247E-2 0
-2.1888310945328907E-3 0
-9.501976415959186E-3 0
-1.2403153965297615E-2 0
6.893912116767805E-3 0
3.4879216565413375E-3 0
-1.4060288000141462E-3 0
-8.804769237542825E-4 0
-3.654006378482246E-5 0
-4.233383908300105E-5 0
-4.6029668514535675E-6 0
-7.054002600680165E-5 0
-8.102730079322866E-5 0
-8.577122769240424E-5 0
-6.70687453311459E-5 0
-5.6359662244433926E-5 0
-7.001800861217405E-5 0
-2.7955709400495556E-4 0
-1.0418981494813725E-3 0
1.6875227284862625E-3 0
7.209931752398569E-3 0
-2.1573401632223654E-2 0
-2.972905791241117E-2 0
3.44853435541891E-2 0
-3.0449559448175074E-2 0
6.238983115122172E-1 0
-2.7051871184655525E-2 0
3.150105781988996E-2 0
-2.5814322904102124E-2 0
-1.5875573682034093E-2 0
1.0166844906636689E-2 0
4.25995104378142E-3 0
-1.006912496109897E-3 0
-1.164197766587302E-4 0
1.9135240994213283E-5 0
9.039866064280988E-5 0
1.356785969982955E-4 0
3.7414719877766106E-5 0
7.403184652546016E-5 0
9.795467330266971E-5 0
1.1013253312025277E-4 0
1.4287890796911836E-4 0
4.0292477395792605E-4 0
1.0242402400427273E-3 0
7.393042613439504E-4 0
-1.4874500474669579E-5 0
5.323676943291391E-3 0
8.41755561714635E-3 0
-1.264174975168712E-2 0
-1.0603891727102795E-2 0
-2.9076372809467175E-3 0
-1.452481252601595E-2 0
-1.643226235733456E-3 0
-9.400548999487349E-3 0
-1.2139904274713596E-2 0
7.278746004876644E-3 0
3.5490479999335054E-3 0
-1.3642322540628224E-3 0
-8.477754408745013E-4 0
3.774181930650192E-6 0
-1.5072990871636641E-5 0
-9.57049418142307E-6 0
-9.883648406443694E-5 0
-1.5311581716618002E-4 0
-1.4942183894720717E-4 0
-1.6782407032484947E-4 0
-1.141878379643713E-4 0
7.800414738294018E-5 0
-8.820838017096314E-4 0
-4.055496762207121E-3 0
-1.1642291340415167E-3 0
2.5501206125058125E-3 0
-2.15785645180151E-2 0
-2.7942769696104448E-2 0
3.27635865478951E-2 0
-2.7051871184655553E-2 0
6.23547170889135E-1 0
-3.0498917678328057E-2 0
3.156782000179107E-2 0
-2.7852403035581855E-2 0
-1.5198423679416546E-2 0
9.456572866226738E-3 0
4.784385159936356E-3 0
-1.5161197420079104E-3 0
1.4981433635040834E-4 0
-7.181105301731185E-5 0
6.379764617452246E-5 0
7.146781505015254E-5 0
8.213064266262505E-5 0
1.0464874496685449E-4 0
1.3570011432869939E-4 0
2.5744521157952725E-4 0
5.908500948857986E-4 0
1.0429755311382E-3 0
1.3111256328039683E-3 0
8.020303457338285E-4 0
3.108584059906675E-4 0
4.782380108750212E-3 0
7.667965317641591E-3 0
-1.3137815397781163E-2 0
-1.0032481144893838E-2 0
-1.9704656320644223E-3 0
-1.3257669846038716E-2 0
-9.245708081410497E-4 0
-8.627809953801753E-3 0
-1.1540172668357886E-2 0
7.494095199218334E-3 0
3.618725466838436E-3 0
-1.2768160873319662E-3 0
-8.029594269684918E-4 0
4.814474039574487E-5 0
1.5397118558268134E-4 0
-1.0831713302046537E-4 0
-1.5296880350058138E-4 0
-2.014771746662784E-4 0
-1.4598299834279376E-4 0
-3.651169217285837E-5 0
-2.4651103076310694E-4 0
-1.2934711262130335E-3 0
-3.5012978980846613E-3 0
-5.737127325714581E-3 0
-1.164128144202337E-3 0
7.222374995945622E-3 0
-1.8001557709530262E-2 0
-2.7792070182155192E-2 0
3.150105781988997E-2 0
-3.049891767832806E-2 0
6.19806592931249E-1 0
-3.3785677665748894E-2 0
3.1017775722218994E-2 0
-2.9638593383094422E-2 0
-1.3853399436617002E-2 0
8.209373987137808E-3 0
5.466269098260536E-3 0
-1.9317218480446917E-3 0
7.326313673596449E-5 0
9.293772932200815E-5 0
7.008161611416347E-5 0
1.0369646793442712E-4 0
1.3102625445738332E-4 0
1.7607907550345564E-4 0
3.102230684682244E-4 0
5.51873614486173E-4 0
8.493849290554351E-4 0
1.182468352490159E-3 0
1.4306531847266797E-3 0
1.1393936332697412E-3 0
2.6015349859499027E-6 0
4.122937854466518E-3 0
7.277987910855815E-3 0
-1.2843178155587177E-2 0
-9.797812964435635E-3 0
-1.044605251553136E-3 0
-1.2483206013819532E-2 0
-1.3167922472630058E-4 0
-8.043446275935945E-3 0
-1.1142367177042376E-2 0
7.70277481486677E-3 0
3.6154172301689456E-3 0
-1.214708522895248E-3 0
-7.74820685292218E-4 0
-4.558543756033731E-4 0
-6.755699869591961E-5 0
-2.1032253879409022E-4 0
-1.697248714745434E-4 0
-1.4543655773171566E-4 0
-1.6966833598399149E-4 0
-4.8242985722842126E-4 0
-1.256060733371921E-3 0
-2.317283102775299E-3 0
-3.4996259283628724E-3 0
-4.056399166904702E-3 0
1.6659498355925605E-3 0
1.0060894135055754E-2 0
-1.6794946339870734E-2 0
-2.5814322904102127E-2 0
3.156782000179107E-2 0
-3.37856776657489E-2 0
6.186016221740304E-1 0
-3.786849686043101E-2 0
3.23582019795786E-2 0
-3.2134295201165446E-2 0
-1.1995079344383677E-2 0
7.026368801516009E-3 0
5.767196041087803E-3 0
-1.8006311531767719E-3 0
-1.0064303113476892E-3 0
1.6626404540234405E-4 0
1.3380905244129944E-4 0
1.3033932502652226E-4 0
2.0351207376395383E-4 0
2.9927519781191246E-4 0
4.467852233812904E-4 0
6.278536270824472E-4 0
8.475075434011789E-4 0
1.0764494390606227E-3 0
1.0819986741680474E-3 0
-8.74211165102988E-5 0
-1.3055261589565693E-3 0
3.7997445663594514E-3 0
6.93513547235463E-3 0
-1.2201651714141684E-2 0
-8.660423078450972E-3 0
-1.3008712808073908E-4 0
-1.1839833550121161E-2 0
5.111258073286487E-4 0
-7.739299773750751E-3 0
-1.1031589959290726E-2 0
7.990615777832808E-3 0
3.4808983894977505E-3 0
-1.113704060168158E-3 0
-1.8007076440916406E-3 0
-5.764059176228417E-4 0
-5.860998469804152E-5 0
-2.1439333092048376E-4 0
-1.9883704807363716E-4 0
-2.4431137852728155E-4 0
-4.865879758924041E-4 0
-9.01530307982015E-4 0
-1.2552725100452372E-3 0
-1.2962565746519217E-3 0
-8.805452732279254E-4 0
-1.0116585852503988E-3 0
3.7149599528054455E-3 0
1.1081699156767499E-2 0
-1.587557368203409E-2 0
-2.785240303558187E-2 0
3.1017775722219015E-2 0
-3.786849686043104E-2 0
6.197137395496742E-1 0
-4.205525690906368E-2 0
3.544699505731127E-2 0
-3.525203910455455E-2 0
-9.996875868213333E-3 0
6.529492373518009E-3 0
5.2570616830220716E-3 0
-1.395703431641681E-3 0
-7.018058625128512E-4 0
1.8060143194242778E-4 0
2.2056755562068904E-4 0
1.8172313134657113E-4 0
2.487683947987033E-4 0
3.33828539811541E-4 0
4.2468393756827326E-4 0
4.994338633598323E-4 0
5.022483939631205E-4 0
2.4260679020895524E-4 0
-8.933727995385079E-6 0
-7.444772554423327E-4 0
-1.4266691332994953E-3 0
3.6656661136431055E-3 0
7.443609339084784E-3 0
-1.1452285916788147E-2 0
-7.991297473371826E-3 0
5.345686208369E-4 0
-1.159232497284777E-2 0
9.874017640563821E-4 0
-7.668791843402059E-3 0
-1.1139481239190046E-2 0
8.469675460366064E-3 0
3.5617195067914834E-3 0
5.457371869512951E-3 0
-1.119885977053334E-3 0
-7.765654179335125E-4 0
-9.938511846778357E-5 0
-1.9338353342764192E-4 0
-2.9224304508857315E-4 0
-3.741772830071046E-4 0
-4.85437894305778E-4 0
-4.837765893328325E-4 0
-2.4310829434022956E-4 0
7.598062895815368E-5 0
-3.1530182538097806E-4 0
-8.637506711418172E-4 0
4.195593600392526E-3 0
1.016684490663669E-2 0
-1.5198423679416545E-2 0
-2.9638593383094426E-2 0
3.235820197957861E-2 0
-4.205525690906366E-2 0
6.232265801760841E-1 0
-4.7142670594549525E-2 0
4.021905022282747E-2 0
-3.922608488333528E-2 0
-8.266771826616585E-3 0
7.378611783455144E-3 0
5.0024832291972925E-3 0
-8.922664587374552E-4 0
-6.099074849824771E-4 0
1.3515622622723138E-4 0
2.556794699315708E-4 0
2.1737232509707515E-4 0
2.3510688885716678E-4 0
2.615397822599678E-4 0
2.4142652145456363E-4 0
1.454262610466538E-4 0
-9.6905816733167E-6 0
8.024684204642737E-7 0
-1.9266444981774977E-5 0
-8.90580678560546E-4 0
-1.3089824115595334E-3 0
3.6971334649060035E-3 0
7.606593743086073E-3 0
-1.1072758896102534E-2 0
-7.704006787646106E-3 0
1.0002032014859107E-3 0
-1.1810389535075598E-2 0
1.6200599972939031E-3 0
-7.866071066757229E-3 0
-1.0977243430390419E-2 0
8.638860336044501E-3 0
1.2541103250504608E-2 0
3.503826364977083E-3 0
-8.827808908409125E-4 0
-8.201835282457166E-4 0
-2.4510282301743754E-4 0
-2.1250606107746988E-4 0
-2.7484715889334254E-4 0
-2.5516077013942385E-4 0
-1.6417249644947257E-4 0
-4.1634195333509596E-5 0
-1.112296529957319E-4 0
-3.374186781240229E-5 0
-3.5226431742088117E-4 0
-8.647103399690193E-4 0
4.259951043781419E-3 0
9.456572866226741E-3 0
-1.3853399436617004E-2 0
-3.213429520116545E-2 0
3.544699505731128E-2 0
-4.714267059454954E-2 0
6.291137767054842E-1 0
-5.3972170451954724E-2 0
4.6610177165105675E-2 0
-4.309151112267232E-2 0
-1.0160174901176119E-2 0
1.1395452707045076E-2 0
3.50848556131562E-3 0
-9.241796186575795E-4 0
-4.1874366340031695E-4 0
1.300540629722551E-4 0
2.1286742894201428E-4 0
1.91696984306745E-4 0
1.7067571375426052E-4 0
1.3187459390263872E-4 0
6.970237968372794E-5 0
5.766989195522781E-5 0
4.220454323708536E-5 0
-2.774303650881491E-5 0
-7.242862153113968E-5 0
-8.571191339300817E-4 0
-1.3071067757201996E-3 0
3.682402347691222E-3 0
7.750220254071598E-3 0
-1.1004392250816964E-2 0
-7.65662237342954E-3 0
1.6234328925257453E-3 0
-1.254097594413254E-2 0
2.510955225951637E-3 0
-8.522986780328624E-3 0
-1.1050205473208943E-2 0
-2.0057102034706523E-2 0
9.758533040311844E-3 0
2.852706744093041E-3 0
-8.7421007626854E-4 0
-6.188821612437409E-4 0
-2.839211188395083E-4 0
-2.1172485892627163E-4 0
-1.8440900400622609E-4 0
-1.5162726756334557E-4 0
-1.4120841511826938E-4 0
-1.7099860431208925E-4 0
-8.839061955759189E-5 0
1.838444757813216E-4 0
-2.5876002095471086E-4 0
-1.0069124961098954E-3 0
4.784385159936353E-3 0
8.209373987137806E-3 0
-1.1995079344383673E-2 0
-3.525203910455456E-2 0
4.021905022282747E-2 0
-5.397217045195471E-2 0
6.369591335462472E-1 0
-6.2110765364164926E-2 0
5.0489891030302984E-2 0
-4.0712493547204284E-2 0
-1.5298627966698765E-2 0
8.71374332570596E-3 0
3.5237473332121352E-3 0
-1.2101850250373974E-3 0
-3.5093515594571573E-4 0
1.8944421705124523E-4 0
1.7289910651754805E-4 0
1.3257723409472853E-4 0
1.100911591110223E-4 0
9.381608088433924E-5 0
8.683193704560528E-5 0
5.5974438590249666E-5 0
4.17897396175396E-5 0
-6.665877186363581E-6 0
-3.763277597633016E-5 0
-8.411895252334586E-4 0
-1.2620908097992125E-3 0
3.6297119827899023E-3 0
7.999866913585466E-3 0
-1.1135126595694227E-2 0
-7.864736223235113E-3 0
2.5110777573710713E-3 0
-1.3290982194082557E-2 0
3.038331476122933E-3 0
-8.489608067943038E-3 0
-4.331265233357718E-2 0
-1.5485876331897162E-2 0
1.07947015379133E-2 0
2.564870455797242E-3 0
-1.2632122981543733E-3 0
-4.946966033629957E-4 0
-1.8362892326689468E-4 0
-1.8533895921958251E-4 0
-1.874463299262968E-4 0
-1.9345494355166927E-4 0
-1.5032794237107615E-4 0
-4.170991560689324E-5 0
1.1301502140010004E-4 0
2.1834795087534008E-4 0
-1.1641977665872969E-4 0
-1.5161197420079143E-3 0
5.466269098260543E-3 0
7.026368801516013E-3 0
-9.996875868213347E-3 0
-3.922608488333527E-2 0
4.6610177165105696E-2 0
-6.211076536416494E-2 0
6.460087763105338E-1 0
-6.719212877533494E-2 0
4.593179232109047E-2 0
-9.522347184371411E-3 0
-1.1591210591595312E-2 0
8.669033644164848E-3 0
4.105460885981866E-3 0
-1.338097899433257E-3 0
-5.256295354944033E-4 0
1.7456840729208612E-4 0
1.558904761727046E-4 0
1.0316248656184855E-4 0
9.442085849857928E-5 0
8.778781549909642E-5 0
5.499452531587789E-5 0
2.908550010708306E-5 0
9.9975089466832E-6 0
-5.40276789213265E-5 0
-8.749000857686662E-6 0
-8.126988866930707E-4 0
-1.2212500057806619E-3 0
3.47650383029462E-3 0
8.466779139082217E-3 0
-1.097887894208671E-2 0
-8.523709827627507E-3 0
3.0381203314779116E-3 0
-1.3140318393699512E-2 0
2.1386934934933704E-3 0
4.421579183417052E-2 0
-2.9867703263861605E-2 0
-1.739777423079347E-2 0
1.1188292185194865E-2 0
3.3821808071150816E-3 0
-1.4217318729401595E-3 0
-5.920019447938129E-4 0
-1.3755453171449892E-4 0
-1.6345593597667053E-4 0
-1.7712542683206146E-4 0
-1.4653170689029235E-4 0
-1.0272046615782039E-4 0
-1.2010744725837452E-4 0
-5.8530313852770735E-5 0
1.9135240994214855E-5 0
1.498143363504137E-4 0
-1.9317218480446954E-3 0
5.767196041087805E-3 0
6.529492373518008E-3 0
-8.266771826616594E-3 0
-4.3091511122672274E-2 0
5.048989103030295E-2 0
-6.719212877533495E-2 0
6.473755454748147E-1 0
-5.7802880205771796E-2 0
1.3496587903406732E-3 0
-7.15764923952909E-3 0
-1.1622433381791293E-2 0
8.2770528708772E-3 0
4.335931903155469E-3 0
-1.2191359329760626E-3 0
-6.080855681171805E-4 0
1.0872870908321138E-4 0
1.1883961262630112E-4 0
7.009070343062602E-5 0
5.618166739721555E-5 0
4.1791076122363574E-5 0
1.822801359531212E-5 0
-1.532659736664292E-5 0
-1.3621526289247924E-5 0
-2.643402364764477E-5 0
3.6973672825815956E-5 0
-7.840585080080397E-4 0
-1.120267758513143E-3 0
3.5576956899001514E-3 0
8.636793215989853E-3 0
-1.1051043353794514E-2 0
-8.489846497775646E-3 0
2.1386597568251436E-3 0
-1.2766432805848693E-2 0
-5.559963146924764E-2 0
2.9983705537424524E-2 0
-2.9051897756183033E-2 0
-1.812318695921255E-2 0
1.0578837651160152E-2 0
3.780261747163691E-3 0
-1.2260226065856784E-3 0
-5.755367448971835E-4 0
-9.808810160272482E-5 0
-9.81935597134593E-5 0
-1.0923364249745672E-4 0
-7.893641067532586E-5 0
8.085455993442719E-5 0
1.253516392473995E-4 0
9.039866064281535E-5 0
-7.18110530173113E-5 0
7.32631367359576E-5 0
-1.800631153176767E-3 0
5.257061683022065E-3 0
7.378611783455152E-3 0
-1.0160174901176105E-2 0
-4.0712493547204284E-2 0
4.5931792321090466E-2 0
-5.780288020577181E-2 0
6.377382763465133E-1 0
