%%MatrixMarket matrix array complex general
%
50 50
4.8041034894740337E-1 0
1.2403373890234155E-3 0
3.4426913081693072E-3 0
6.47243323969536E-4 0
-1.552782415265574E-3 0
4.5566136070986167E-4 0
1.2936229738582325E-3 0
-3.350782022498397E-3 0
3.1248391917392078E-3 0
-3.4902637600347313E-3 0
4.706276827802492E-3 0
6.498327686677827E-4 0
-6.010421583425241E-3 0
-6.010421583425279E-3 0
6.473100311057768E-4 0
4.717731754982142E-3 0
-3.5181342424800074E-3 0
3.1745805262786446E-3 0
-3.4236500151741678E-3 0
1.3859961298080348E-3 0
3.4886158404717375E-4 0
-1.433227615036979E-3 0
4.88734366063783E-4 0
3.627742601576849E-3 0
1.2129778476490255E-3 0
1.7721963967840523E-2 0
-5.090078548090607E-3 0
4.4870058914988275E-3 0
2.3621065308049695E-3 0
-4.207265101324771E-3 0
1.7150243351172789E-3 0
-3.1178587048811307E-3 0
-7.105988409406533E-3 0
-1.8356958328730824E-3 0
1.551098380427058E-2 0
5.179760193633343E-3 0
-9.315750861815474E-4 0
6.444522819836065E-3 0
6.444522819835577E-3 0
-9.286316769500358E-4 0
5.1663951338230775E-3 0
1.5544132415465052E-2 0
-1.8979802395497067E-3 0
-7.006131654287909E-3 0
-3.2612150014248603E-3 0
1.8956186057614809E-3 0
-4.3902284319403025E-3 0
2.404861915821037E-3 0
4.660617790455863E-3 0
-5.503438076052466E-3 0
1.2403373890234187E-3 0
4.8953981531122065E-1 0
8.892318659636003E-4 0
2.520552297289344E-3 0
4.7462954064108297E-4 0
-1.1306693498639795E-3 0
3.3590189886608236E-4 0
9.466492831879305E-4 0
-2.4177434795673762E-3 0
2.308131868878347E-3 0
-2.4760716712616585E-3 0
3.4472492614363815E-3 0
4.7752744616620565E-4 0
-4.3598126167887895E-3 0
-4.13623779446281E-3 0
4.872492284368112E-4 0
3.4757213156689252E-3 0
-2.60431428751747E-3 0
2.348902027578179E-3 0
-2.5399431718019995E-3 0
1.0454191202997553E-3 0
2.33961225300384E-4 0
-1.052935658347935E-3 0
4.199152228753166E-4 0
2.68481803087676E-3 0
-5.090078548091178E-3 0
9.467257685187634E-3 0
-3.7026823600087664E-3 0
3.2717034670623987E-3 0
1.7587893095538354E-3 0
-3.059400026802005E-3 0
1.173433077439553E-3 0
-2.3903765223909908E-3 0
-5.301414581499557E-3 0
-1.4349186209754261E-3 0
1.1441016367682499E-2 0
4.0798859040175155E-3 0
-4.941548765107465E-4 0
4.808979495850011E-3 0
4.281045932696779E-3 0
-8.749306141833888E-4 0
3.78440038458956E-3 0
1.142859305228958E-2 0
-1.3683925865151862E-3 0
-5.003683577528941E-3 0
-2.4805651461541705E-3 0
1.5322616751489782E-3 0
-3.3766221128300033E-3 0
2.1011931644461545E-3 0
3.3311295926042525E-3 0
3.442691308169307E-3 0
8.892318659636182E-4 0
4.895379410356022E-1 0
8.887323118944946E-4 0
2.522272569653133E-3 0
4.7926784654223206E-4 0
-1.1214010241328797E-3 0
3.5400146492128707E-4 0
9.935259698265059E-4 0
-2.318918490265408E-3 0
2.5653821424888256E-3 0
-2.291596644920551E-3 0
3.698786744245713E-3 0
5.92149803825414E-4 0
-4.251706992366726E-3 0
-4.262138033663993E-3 0
4.874129697746396E-4 0
3.521368564420082E-3 0
-2.646269617167081E-3 0
2.4178339671539514E-3 0
-2.611071894243152E-3 0
1.1125920081252094E-3 0
2.173432158516878E-4 0
-1.106131305458468E-3 0
5.145665726723465E-4 0
4.487005891499711E-3 0
-3.7022404143429995E-3 0
9.457540857548078E-3 0
-3.715849805302615E-3 0
3.250431368517621E-3 0
1.7190828908553875E-3 0
-3.1329564093024137E-3 0
1.0530032208377863E-3 0
-2.5596809908882607E-3 0
-5.485518228644773E-3 0
-1.5026596363952509E-3 0
1.15088455974132E-2 0
4.472292775774525E-3 0
-3.9034750070253595E-4 0
4.570804572970443E-3 0
4.478546075160002E-3 0
-6.187173109370079E-4 0
3.812832930962672E-3 0
1.1450106361877313E-2 0
-1.4292295869257267E-3 0
-4.963140875889299E-3 0
-2.558809019228475E-3 0
1.6626361617407964E-3 0
-3.484567790342948E-3 0
2.1083289584049518E-3 0
6.472433239695397E-4 0
2.5205522972893218E-3 0
8.887323118945137E-4 0
4.8953957930506775E-1 0
8.928101135214116E-4 0
2.5291152266533577E-3 0
4.902580618187606E-4 0
-1.103461737622994E-3 0
3.9192910789035E-4 0
1.0571249223592922E-3 0
-2.203903254867361E-3 0
2.5258358776392323E-3 0
-2.5445547377565326E-3 0
3.647710754454869E-3 0
4.4411178006136345E-4 0
-4.196565570660758E-3 0
-4.030556956262003E-3 0
5.288931738635418E-4 0
3.6153826153752103E-3 0
-2.71397643576826E-3 0
2.5319378387802342E-3 0
-2.7436504800927835E-3 0
1.244953546626479E-3 0
1.270118563949669E-4 0
-1.1216535560778504E-3 0
2.362106530804226E-3 0
3.273202821012034E-3 0
-3.7141251775922772E-3 0
9.442383821737005E-3 0
-3.7400763499531656E-3 0
3.2059638618409654E-3 0
1.6395267384339484E-3 0
-3.2570623910058347E-3 0
8.750241017624743E-4 0
-2.7518757313407844E-3 0
-5.636112658109626E-3 0
-1.3342999888026267E-3 0
1.2486757267324273E-2 0
4.598160038430176E-3 0
-1.974301209454028E-4 0
4.774832370468475E-3 0
4.448952533068496E-3 0
-7.09946308650434E-4 0
3.6722087858979593E-3 0
1.1398693963509551E-2 0
-1.4973252694099135E-3 0
-4.973753864283856E-3 0
-2.561183038297053E-3 0
1.5649051561703663E-3 0
-3.345465987510264E-3 0
-1.5527824152655717E-3 0
4.7462954064109733E-4 0
2.5222725696531197E-3 0
8.928101135213927E-4 0
4.8954519193642226E-1 0
8.989386183578154E-4 0
2.5342761143560726E-3 0
4.91042782541514E-4 0
-1.1201261914877657E-3 0
3.342767008619155E-4 0
8.376406366507127E-4 0
-2.4718749396419517E-3 0
2.4776770539289643E-3 0
-2.7028130235893333E-3 0
3.554390257115698E-3 0
7.744952273292822E-4 0
-3.98536843418914E-3 0
-3.884011594321094E-3 0
5.323721998361384E-4 0
3.70588313111383E-3 0
-2.8153650954716317E-3 0
2.6874912357046127E-3 0
-2.9246603272053318E-3 0
1.3712906987172699E-3 0
1.667277940102923E-4 0
-4.207265101324317E-3 0
1.7616472533282116E-3 0
3.2547145585111806E-3 0
-3.736722367240989E-3 0
9.410992153206498E-3 0
-3.789473292149375E-3 0
3.1272910209723496E-3 0
1.5271946327031786E-3 0
-3.4041429440649744E-3 0
7.478132092550375E-4 0
-2.8429472994002665E-3 0
-5.383264297598142E-3 0
-1.0653344493346613E-3 0
1.2455925916912535E-2 0
4.396722109064664E-3 0
-3.031392949011444E-4 0
4.454729878978023E-3 0
4.1864784977743924E-3 0
-8.692016915166666E-4 0
3.5276657685758997E-3 0
1.1386119308482814E-2 0
-1.5462268935914297E-3 0
-4.992831344546896E-3 0
-2.430820836265315E-3 0
1.3695235600788452E-3 0
4.556613607098596E-4 0
-1.1306693498639828E-3 0
4.792678465422292E-4 0
2.529115226653336E-3 0
8.989386183578061E-4 0
4.895464382977918E-1 0
8.894398047443159E-4 0
2.5064091805942694E-3 0
4.2506819303621274E-4 0
-1.229807075638572E-3 0
1.982600499833087E-4 0
9.080380063103069E-4 0
-2.5425367802686025E-3 0
2.313747796805462E-3 0
-2.5321436390408135E-3 0
3.614026295845151E-3 0
7.754578530100017E-4 0
-3.9505464886511205E-3 0
-3.828403385739806E-3 0
5.053399110143035E-4 0
3.792299141141192E-3 0
-2.9378615385107307E-3 0
2.851099267132567E-3 0
-3.0123224645168065E-3 0
1.249787357936434E-3 0
1.715024335117029E-3 0
-3.0556350438128723E-3 0
1.725558053712238E-3 0
3.213098699047759E-3 0
-3.784455867264102E-3 0
9.35234932979844E-3 0
-3.865137251225081E-3 0
3.0339379532035794E-3 0
1.4064184880468072E-3 0
-3.5299816169407777E-3 0
5.053381027297244E-4 0
-2.8133263387553776E-3 0
-5.513493573401425E-3 0
-1.2531571607272104E-3 0
1.1840770500734163E-2 0
4.359619596893842E-3 0
-6.40907657170674E-4 0
4.228030362672465E-3 0
3.97470145680033E-3 0
-9.310115640632942E-4 0
3.4089606728003544E-3 0
1.1485563859194284E-2 0
-1.5982932029073912E-3 0
-5.050660116291841E-3 0
-2.412982075617495E-3 0
1.293622973858233E-3 0
3.35901898866066E-4 0
-1.121401024132886E-3 0
4.90258061818762E-4 0
2.5342761143560604E-3 0
8.89439804744303E-4 0
4.895145870592321E-1 0
8.311484644189295E-4 0
2.4220190452549145E-3 0
3.469776254494285E-4 0
-1.235579788986409E-3 0
3.1243524408206615E-4 0
9.733023073981099E-4 0
-2.6689505870491964E-3 0
2.219770221023902E-3 0
-2.462574571917893E-3 0
3.6007109205964845E-3 0
7.768310728958147E-4 0
-3.945384882752894E-3 0
-3.8074390756608185E-3 0
4.729497166405482E-4 0
3.8486100367429352E-3 0
-3.050640584605055E-3 0
2.8448466545290857E-3 0
-2.844560777029961E-3 0
-3.1178587048809867E-3 0
1.1745642990971387E-3 0
-3.128397305109403E-3 0
1.6486358062033843E-3 0
3.1383759163121296E-3 0
-3.8571711249007555E-3 0
9.282416350279616E-3 0
-3.924719035919201E-3 0
2.973299943325687E-3 0
1.3529101005632896E-3 0
-3.658518958566039E-3 0
6.973122082628352E-4 0
-2.68098512959421E-3 0
-5.5780868617809655E-3 0
-1.0546135595282924E-3 0
1.1751189700320802E-2 0
3.946985786261016E-3 0
-9.027442639348122E-4 0
4.0617782276290626E-3 0
3.88109099790844E-3 0
-8.813143080823485E-4 0
3.311592797798295E-3 0
1.1764703878566023E-2 0
-1.8045086520925922E-3 0
-5.19494977922699E-3 0
-3.3507820224983947E-3 0
9.466492831879433E-4 0
3.5400146492129173E-4 0
-1.1034617376229898E-3 0
4.910427825415214E-4 0
2.506409180594277E-3 0
8.31148464418927E-4 0
4.8942820111559177E-1 0
7.331420796086444E-4 0
2.3559879592683366E-3 0
3.3758001423873387E-4 0
-1.2513876132427284E-3 0
2.5692283667328494E-4 0
9.566855937843758E-4 0
-2.426854660958095E-3 0
2.3398471372208436E-3 0
-2.4094200008033285E-3 0
3.638992532014495E-3 0
7.691463775889026E-4 0
-3.92272945666382E-3 0
-3.8358461472905005E-3 0
4.624849810696854E-4 0
3.8596406655303423E-3 0
-3.0074724151913307E-3 0
2.6312416449618564E-3 0
-7.1059884094065865E-3 0
-2.4014665984464214E-3 0
1.0454163000732405E-3 0
-3.2495908569214926E-3 0
1.5464925752227267E-3 0
3.0533099602496052E-3 0
-3.914078000528698E-3 0
9.284357527972843E-3 0
-3.8364019350393195E-3 0
3.184874918054112E-3 0
1.7766025129518318E-3 0
-3.0485699768435987E-3 0
1.142208230473859E-3 0
-2.6197367421251813E-3 0
-5.387486118264341E-3 0
-1.45844772537207E-3 0
1.1261898001338653E-2 0
3.6475987117130697E-3 0
-1.0155081010603034E-3 0
4.0241826432067555E-3 0
3.962448682418214E-3 0
-8.009657578011642E-4 0
3.312886848925015E-3 0
1.2035359527444528E-2 0
-1.7037369323153666E-3 0
3.1248391917392104E-3 0
-2.4177434795673836E-3 0
9.935259698265046E-4 0
3.9192910789034906E-4 0
-1.1201261914877676E-3 0
4.250681930362052E-4 0
2.4220190452549045E-3 0
7.331420796085744E-4 0
4.89305295409759E-1 0
5.915394003276692E-4 0
2.266629987428385E-3 0
2.439154999093397E-4 0
-1.3912891381697913E-3 0
3.4326220394784895E-4 0
1.0144519616199393E-3 0
-2.3078934771489953E-3 0
2.508339157452842E-3 0
-2.3679645379585134E-3 0
3.674495931383016E-3 0
7.111590706216889E-4 0
-3.8730127169981695E-3 0
-3.939957150398136E-3 0
4.7353483065054196E-4 0
3.7018149708013997E-3 0
-2.834960406601382E-3 0
-1.8356958328731277E-3 0
-5.355970459436621E-3 0
-2.6033146964722924E-3 0
8.832126570042249E-4 0
-3.364553184338196E-3 0
1.4420134027856287E-3 0
2.9925158007168364E-3 0
-3.8308051197554482E-3 0
9.571733674164208E-3 0
-3.351106722509295E-3 0
3.952237520555589E-3 0
2.359139515689125E-3 0
-3.0499979486610083E-3 0
1.107698470204303E-3 0
-2.8819413742925525E-3 0
-5.818136834612414E-3 0
-1.7099678087658858E-3 0
1.1104304558224571E-2 0
3.609837960484281E-3 0
-8.50871519434458E-4 0
4.082285940804328E-3 0
4.294544772674499E-3 0
-8.525373315035682E-4 0
3.912620611723459E-3 0
1.207097101019961E-2 0
-3.4902637600347335E-3 0
2.308131868878349E-3 0
-2.3189184902654126E-3 0
1.0571249223592877E-3 0
3.342767008619141E-4 0
-1.2298070756385697E-3 0
3.469776254494311E-4 0
2.3559879592683582E-3 0
5.915394003276716E-4 0
4.8903508659092054E-1 0
3.2835231505472375E-4 0
2.1018559505545176E-3 0
2.6640299747053916E-4 0
-1.2194304597651794E-3 0
5.128755283680066E-4 0
1.323399061857326E-3 0
-2.0892575817732105E-3 0
2.540895678246425E-3 0
-2.478984530261099E-3 0
3.706007614695754E-3 0
6.400197052743804E-4 0
-3.828140663662566E-3 0
-4.191638498509706E-3 0
6.150285621340088E-4 0
3.5984711850553536E-3 0
1.551098380427074E-2 0
-1.5661502892920542E-3 0
-5.5756624996737844E-3 0
-2.7205732102855065E-3 0
8.252222760712214E-4 0
-3.4817908784635E-3 0
1.3698689063819849E-3 0
3.1879983929437097E-3 0
-3.369979101054191E-3 0
1.0143882035077626E-2 0
-2.761948133971261E-3 0
4.181435918074937E-3 0
2.3478396527543853E-3 0
-3.3048785109960964E-3 0
6.744334202908024E-4 0
-3.005869757259195E-3 0
-5.72691321417098E-3 0
-1.7088123039321903E-3 0
1.1301123521322906E-2 0
3.860476265006243E-3 0
-5.856661292222731E-4 0
4.218393360363101E-3 0
4.701976210554627E-3 0
-9.049342387338079E-4 0
4.341728499492113E-3 0
4.706276827802492E-3 0
-2.4760716712616568E-3 0
2.5653821424888312E-3 0
-2.2039032548673465E-3 0
8.37640636650719E-4 0
1.982600499833055E-4 0
-1.2355797889864073E-3 0
3.375800142387397E-4 0
2.2666299874283874E-3 0
3.283523150547341E-4 0
4.8852785088683337E-1 0
5.106428250216364E-6 0
2.237225058309753E-3 0
3.232462590410725E-4 0
-6.788009363044373E-4 0
1.0358522530886064E-3 0
1.34653574049896E-3 0
-2.363791293268915E-3 0
2.4340677541280146E-3 0
-2.594554984121826E-3 0
3.775574369169885E-3 0
5.997175146767033E-4 0
-3.993200591887903E-3 0
-4.483677767545044E-3 0
6.310939189029333E-4 0
5.1797601936330795E-3 0
1.1148912250495566E-2 0
-1.6112341736021299E-3 0
-5.494288345602784E-3 0
-2.7352447574819877E-3 0
5.555695849308872E-4 0
-3.6744939528329528E-3 0
1.768354868811432E-3 0
3.916661411398928E-3 0
-2.964345606955078E-3 0
1.0671432247884515E-2 0
-2.1857359707159445E-3 0
4.417890405905607E-3 0
1.9450439375547257E-3 0
-3.75918441485368E-3 0
5.243737930566228E-4 0
-2.816529410621624E-3 0
-5.752119596800724E-3 0
-1.4999338702626607E-3 0
1.183021443931491E-2 0
4.2470729166828E-3 0
-3.635001915748836E-4 0
4.560884545404542E-3 0
4.7167350003143125E-3 0
-7.004711012425205E-4 0
6.498327686677794E-4 0
3.447249261436386E-3 0
-2.2915966449205496E-3 0
2.525835877639235E-3 0
-2.4718749396419487E-3 0
9.080380063103059E-4 0
3.1243524408206013E-4 0
-1.2513876132427325E-3 0
2.4391549990933665E-4 0
2.101855950554505E-3 0
5.106428250242083E-6 0
4.885608158502834E-1 0
2.0728210570474193E-4 0
2.1075228069454338E-3 0
6.218289268297212E-4 0
-6.663044610128854E-4 0
4.767230232347155E-4 0
1.085421860582823E-3 0
-2.5422924723023806E-3 0
2.3853106118502214E-3 0
-2.741134039355056E-3 0
3.775560469846176E-3 0
2.8532351705662997E-4 0
-4.207554096515393E-3 0
-4.353977982907443E-3 0
-9.315750861811983E-4 0
3.8852453166481247E-3 0
1.1550953913901707E-2 0
-1.1304287819774712E-3 0
-5.363706143345825E-3 0
-2.7815540076770308E-3 0
6.585728269535947E-4 0
-3.0723750908583625E-3 0
2.3393778699136824E-3 0
3.84327077964572E-3 0
-2.8007554575681256E-3 0
1.0860014914601366E-2 0
-2.6435322386120395E-3 0
3.976193373969659E-3 0
1.674864563933067E-3 0
-3.1526340400249192E-3 0
1.0364198255998088E-3 0
-2.9079491437676115E-3 0
-5.291654559688608E-3 0
-1.1115924972867864E-3 0
1.1908151635683518E-2 0
4.32011197737503E-3 0
-4.481986085504428E-4 0
4.659946493861359E-3 0
4.64153204505224E-3 0
-6.010421583425241E-3 0
4.7752744616620494E-4 0
3.6987867442457153E-3 0
-2.5445547377565356E-3 0
2.477677053928966E-3 0
-2.542536780268596E-3 0
9.733023073981104E-4 0
2.569228366732813E-4 0
-1.3912891381697879E-3 0
2.664029974705368E-4 0
2.237225058309757E-3 0
2.072821057047484E-4 0
4.8733757618240603E-1 0
-1.795665903604011E-5 0
2.1110198430426405E-3 0
3.0736736048229057E-4 0
-1.1795473233234884E-3 0
2.6589712173616457E-4 0
1.0879294318676476E-3 0
-2.873476132116583E-3 0
2.608857112601139E-3 0
-3.0843332554230905E-3 0
4.031808022143078E-3 0
3.470221675772996E-4 0
-4.521240993479299E-3 0
6.444522819835735E-3 0
-4.8792930918485E-4 0
4.570785972161875E-3 0
1.2580891083580351E-2 0
-1.104309204100078E-3 0
-5.505689099489018E-3 0
-2.69919799713503E-3 0
1.1258464134749969E-3 0
-3.0528378813608624E-3 0
2.1841923316164623E-3 0
3.915309802991031E-3 0
-3.0166114992906594E-3 0
1.181413066485569E-2 0
-3.0363402756623057E-3 0
4.3464635541461665E-3 0
2.460379657401638E-3 0
-3.1731858812982616E-3 0
1.1721285664391412E-3 0
-2.706634152676637E-3 0
-5.401835875256738E-3 0
-1.4784366266603819E-3 0
1.2746650443194929E-2 0
4.3466606119852425E-3 0
-5.266211784640158E-4 0
5.132655808992027E-3 0
-6.010421583425279E-3 0
-4.35981261678879E-3 0
5.921498038254137E-4 0
3.6477107544548725E-3 0
-2.7028130235893367E-3 0
2.3137477968054572E-3 0
-2.6689505870491946E-3 0
9.566855937843779E-4 0
3.4326220394784754E-4 0
-1.219430459765178E-3 0
3.232462590410721E-4 0
2.1075228069454372E-3 0
-1.795665903603978E-5 0
4.8733757618240603E-1 0
2.0443163623062383E-4 0
2.2501681090436963E-3 0
2.334842729804749E-4 0
-1.3254688961525654E-3 0
1.3913949880969443E-4 0
1.1713896384478665E-3 0
-2.861785898753719E-3 0
2.9543200265094854E-3 0
-3.192944402352503E-3 0
4.347712782554181E-3 0
2.0691744735948307E-4 0
6.444522819835689E-3 0
4.802753928524271E-3 0
-4.888406970901165E-4 0
4.504026222174287E-3 0
1.2494900671677819E-2 0
-1.2609616346395684E-3 0
-5.559873994240172E-3 0
-2.603374925126313E-3 0
1.1105384029041548E-3 0
-3.141231189858174E-3 0
2.4476245404692937E-3 0
4.349272634648282E-3 0
-3.0363402756623022E-3 0
1.181413066485569E-2 0
-3.013911438974261E-3 0
3.9030497111089716E-3 0
2.2151094601552805E-3 0
-3.1134025574042776E-3 0
1.2314057805852254E-3 0
-2.87343490721574E-3 0
-5.2249109203126014E-3 0
-1.5300300032034765E-3 0
1.311552858460805E-2 0
4.1177794491381505E-3 0
-3.33865417333635E-4 0
6.473100311057731E-4 0
-4.13623779446281E-3 0
-4.251706992366725E-3 0
4.441117800613646E-4 0
3.5543902571157013E-3 0
-2.5321436390408143E-3 0
2.219770221023907E-3 0
-2.4268546609580877E-3 0
1.0144519616199445E-3 0
5.128755283680132E-4 0
-6.788009363043897E-4 0
6.218289268297583E-4 0
2.1110198430426344E-3 0
2.044316362306162E-4 0
4.8856417610754965E-1 0
-2.872187536655018E-6 0
2.12055989115086E-3 0
2.0557112322667375E-4 0
-1.1782580480181768E-3 0
1.7936779799955675E-4 0
1.1421248522772395E-3 0
-2.8519014411958555E-3 0
3.098454303413662E-3 0
-2.916298026349542E-3 0
3.933193969386064E-3 0
-9.286316769501078E-4 0
4.475680913674976E-3 0
4.528694400369254E-3 0
-4.0129903503558997E-4 0
4.377164920033231E-3 0
1.1808998491035207E-2 0
-1.0158748222489874E-3 0
-5.363680988300803E-3 0
-2.8621785125615834E-3 0
1.0125971997786735E-3 0
-3.144152634696238E-3 0
1.6749065052380169E-3 0
3.973413898639855E-3 0
-2.6408617834679377E-3 0
1.0856384634505884E-2 0
-2.7921587751045516E-3 0
3.8239459485291307E-3 0
2.37643455029561E-3 0
-3.13762521754264E-3 0
7.700019973365824E-4 0
-2.9766944998684906E-3 0
-5.0274329252419986E-3 0
-1.7351949516871783E-3 0
1.2322895008744294E-2 0
3.6956049822406364E-3 0
4.717731754982143E-3 0
4.8724922843681236E-4 0
-4.2621380336639965E-3 0
-4.196565570660758E-3 0
7.74495227329284E-4 0
3.6140262958451533E-3 0
-2.462574571917892E-3 0
2.3398471372208423E-3 0
-2.307893477149E-3 0
1.3233990618573112E-3 0
1.0358522530886068E-3 0
-6.663044610128753E-4 0
3.07367360482292E-4 0
2.250168109043693E-3 0
-2.872187536658194E-6 0
4.885310266383258E-1 0
3.2818231448611233E-4 0
2.267977710559506E-3 0
3.2486091627572213E-4 0
-1.1921049002657608E-3 0
8.884143269494529E-5 0
1.0584060712949086E-3 0
-2.5986109544728574E-3 0
3.0434178035603143E-3 0
-2.8528433082437585E-3 0
5.166395133823158E-3 0
-5.828010402058165E-4 0
4.587129040368454E-3 0
4.632997647400603E-3 0
-4.1084621957201473E-4 0
4.309386655413717E-3 0
1.1767167618917352E-2 0
-1.4502001536498281E-3 0
-5.7825662467125396E-3 0
-2.8034661137667453E-3 0
5.243179731734098E-4 0
-3.767843968642107E-3 0
1.9576646270706055E-3 0
4.405764741440001E-3 0
-2.176936553182158E-3 0
1.0667290318460736E-2 0
-2.9643684910819292E-3 0
3.919280438772749E-3 0
1.768090657740313E-3 0
-3.687729755878676E-3 0
5.993538710048475E-4 0
-2.827515249889753E-3 0
-5.271346914589918E-3 0
-1.9627539249737584E-3 0
1.1955271140205852E-2 0
-3.518134242480011E-3 0
3.475721315668926E-3 0
4.874129697746374E-4 0
-4.030556956262006E-3 0
-3.985368434189141E-3 0
7.754578530100047E-4 0
3.60071092059649E-3 0
-2.409420000803323E-3 0
2.5083391574528386E-3 0
-2.0892575817732305E-3 0
1.3465357404989556E-3 0
4.7672302323472076E-4 0
-1.1795473233234919E-3 0
2.334842729804768E-4 0
2.1205598911508586E-3 0
3.2818231448608127E-4 0
4.8901450351554027E-1 0
6.327291782390394E-4 0
2.3009882773155667E-3 0
4.008329125624588E-4 0
-1.2544868131671024E-3 0
2.8916904919911644E-4 0
1.2432368621212969E-3 0
-2.613419372407694E-3 0
2.60343457720535E-3 0
1.554413241546505E-2 0
3.915570343932588E-3 0
-5.285935260281312E-4 0
4.417675194151219E-3 0
4.3773314410528764E-3 0
-6.890948626971219E-4 0
3.9300199120402045E-3 0
1.125877481787727E-2 0
-1.6910813982680198E-3 0
-5.726926071820624E-3 0
-3.0187779611294406E-3 0
6.987410659188835E-4 0
-3.3364938545443886E-3 0
2.378417433401412E-3 0
4.161623349563535E-3 0
-2.7621137714040596E-3 0
1.0170046031070934E-2 0
-3.4263365468642426E-3 0
3.271555782742483E-3 0
1.2770911018219757E-3 0
-3.4029760231798914E-3 0
7.679209036433338E-4 0
-2.6264748259025622E-3 0
-5.733201906554591E-3 0
-1.5691841610017076E-3 0
3.1745805262786467E-3 0
-2.6043142875174672E-3 0
3.5213685644200823E-3 0
5.288931738635406E-4 0
-3.8840115943210947E-3 0
-3.950546488651123E-3 0
7.768310728958082E-4 0
3.6389925320144973E-3 0
-2.3679645379585095E-3 0
2.5408956782464152E-3 0
-2.3637912932689157E-3 0
1.0854218605828273E-3 0
2.6589712173616777E-4 0
-1.3254688961525675E-3 0
2.055711232266662E-4 0
2.2679777105595036E-3 0
6.327291782390369E-4 0
4.8921856787757617E-1 0
8.605957146856969E-4 0
2.2655133029078197E-3 0
5.906707384082512E-4 0
-1.2642789825761337E-3 0
4.5258568391588153E-4 0
1.0436322114588245E-3 0
-2.6142928246028286E-3 0
-1.8979802395498507E-3 0
1.1483257931035825E-2 0
3.8565031013135164E-3 0
-7.181790776221933E-4 0
4.14686993962985E-3 0
4.1924292295047105E-3 0
-9.219477371635472E-4 0
3.6420008056931726E-3 0
1.1104276551595214E-2 0
-1.7276724091359458E-3 0
-5.788026410278864E-3 0
-2.928692854550896E-3 0
1.1686221868650148E-3 0
-3.1098961778301534E-3 0
2.397179475048432E-3 0
3.955181740011794E-3 0
-3.407462425835455E-3 0
9.693178454937402E-3 0
-4.01880536961854E-3 0
3.2155396610264383E-3 0
1.2483491526545263E-3 0
-3.271401615089488E-3 0
9.091545529832868E-4 0
-2.6833853525016116E-3 0
-5.583401496954831E-3 0
-3.423650015174167E-3 0
2.3489020275781762E-3 0
-2.6462696171670823E-3 0
3.6153826153752116E-3 0
5.323721998361391E-4 0
-3.8284033857398135E-3 0
-3.9453848827529E-3 0
7.69146377588895E-4 0
3.674495931383027E-3 0
-2.478984530261098E-3 0
2.4340677541280125E-3 0
-2.542292472302379E-3 0
1.0879294318676483E-3 0
1.3913949880969354E-4 0
-1.1782580480181792E-3 0
3.2486091627572376E-4 0
2.300988277315567E-3 0
8.605957146856987E-4 0
4.892327924680245E-1 0
1.0845577495039833E-3 0
2.210787958748651E-3 0
8.011283383461811E-4 0
-1.3827825801232799E-3 0
5.362062540066265E-4 0
9.59232385965304E-4 0
-7.006131654287634E-3 0
-1.357458868993953E-3 0
1.1457640202396245E-2 0
3.664799900850247E-3 0
-8.88472677574214E-4 0
3.955338240582392E-3 0
4.0511197502584115E-3 0
-1.015504423954204E-3 0
3.615486466392681E-3 0
1.1304265220801338E-2 0
-1.507496859753665E-3 0
-5.3136812406478955E-3 0
-2.721842357296637E-3 0
1.2466139852052279E-3 0
-3.115598513288929E-3 0
1.775653541458946E-3 0
3.2684144473184617E-3 0
-4.024455053658828E-3 0
9.600405697481601E-3 0
-4.335699879985704E-3 0
3.495208020505046E-3 0
1.213770632028107E-3 0
-3.1678933826863186E-3 0
1.2035791274987928E-3 0
-2.6860486011316795E-3 0
1.3859961298080328E-3 0
-2.5399431718020004E-3 0
2.417833967153952E-3 0
-2.7139764357682534E-3 0
3.7058831311138243E-3 0
5.05339911014302E-4 0
-3.8074390756608267E-3 0
-3.922729456663821E-3 0
7.11159070621693E-4 0
3.706007614695752E-3 0
-2.59455498412183E-3 0
2.3853106118502197E-3 0
-2.8734761321165857E-3 0
1.1713896384478685E-3 0
1.7936779799955713E-4 0
-1.1921049002657574E-3 0
4.0083291256245697E-4 0
2.265513302907823E-3 0
1.0845577495039714E-3 0
4.8917063722876886E-1 0
1.313442559418321E-3 0
2.0673977746181477E-3 0
9.379936576635506E-4 0
-1.4471908310162026E-3 0
4.47227877139726E-4 0
-3.2612150014251977E-3 0
-5.004623806826817E-3 0
-1.4337223298137682E-3 0
1.1389510027214887E-2 0
3.5165482572894935E-3 0
-9.389879087980167E-4 0
3.8811115033957995E-3 0
4.034813018461546E-3 0
-8.317515557262216E-4 0
3.8773153783222083E-3 0
1.1812900185623362E-2 0
-1.1533455265483553E-3 0
-5.4218934215049435E-3 0
-2.8533773609675313E-3 0
8.117543630377599E-4 0
-3.6704124891761745E-3 0
1.2602447152111052E-3 0
3.196432393312215E-3 0
-4.346347991142862E-3 0
9.924019146036167E-3 0
-4.6529411009907954E-3 0
3.93566885468063E-3 0
1.0902693342796513E-3 0
-2.9532813561161516E-3 0
1.2857358159408209E-3 0
3.488615840471757E-4 0
1.0454191202997538E-3 0
-2.6110718942431574E-3 0
2.5319378387802316E-3 0
-2.815365095471632E-3 0
3.7922991411411897E-3 0
4.72949716640539E-4 0
-3.8358461472905014E-3 0
-3.8730127169981704E-3 0
6.400197052743777E-4 0
3.7755743691698885E-3 0
-2.7411340393550592E-3 0
2.608857112601142E-3 0
-2.861785898753725E-3 0
1.1421248522772423E-3 0
8.88414326949454E-5 0
-1.2544868131671007E-3 0
5.906707384082535E-4 0
2.210787958748626E-3 0
1.3134425594183514E-3 0
4.8898271108100094E-1 0
1.575552626784242E-3 0
1.8625224727069796E-3 0
9.287203682332526E-4 0
-1.305547645626851E-3 0
1.8956186057618241E-3 0
-2.484532893497152E-3 0
-4.9696889820291E-3 0
-1.5043838580723337E-3 0
1.1381134778413899E-2 0
3.4089695065119786E-3 0
-8.733678171657737E-4 0
3.981851147324891E-3 0
4.11807753260292E-3 0
-5.37086725061099E-4 0
4.299782395328664E-3 0
1.1944695435004296E-2 0
-1.4679252735016787E-3 0
-5.235422273471299E-3 0
-3.0132379358585046E-3 0
5.466427425926639E-4 0
-3.4515514433972046E-3 0
1.2125505992935206E-3 0
3.4758152489029063E-3 0
-4.6608985309384504E-3 0
1.0502362713596778E-2 0
-5.158257506976049E-3 0
4.506020434298137E-3 0
8.8911602867792E-4 0
-2.983497448447984E-3 0
-1.4332276150369775E-3 0
2.3396122530038862E-4 0
1.1125920081252098E-3 0
-2.743650480092786E-3 0
2.687491235704611E-3 0
-2.937861538510737E-3 0
3.848610036742936E-3 0
4.624849810696809E-4 0
-3.93995715039814E-3 0
-3.8281406636625688E-3 0
5.997175146767033E-4 0
3.7755604698461735E-3 0
-3.0843332554230866E-3 0
2.9543200265094846E-3 0
-2.8519014411958594E-3 0
1.058406071294902E-3 0
2.8916904919913027E-4 0
-1.264278982576144E-3 0
8.011283383461783E-4 0
2.067397774618162E-3 0
1.5755526267842226E-3 0
4.886013498532927E-1 0
1.9574050060080033E-3 0
1.7593328095024232E-3 0
7.084584874006675E-4 0
-4.390228431940569E-3 0
1.5295909857629044E-3 0
-2.5630213338770397E-3 0
-4.977172617845239E-3 0
-1.546252247956891E-3 0
1.1490578494022538E-2 0
3.3226909182990693E-3 0
-7.817428140374459E-4 0
4.333732463921009E-3 0
4.294868671142089E-3 0
-2.599242726018861E-4 0
4.332924984882454E-3 0
1.2704210693000456E-2 0
-1.4875902530089894E-3 0
-5.040245041203985E-3 0
-2.931095217079323E-3 0
6.914554208181222E-4 0
-3.3106067397095863E-3 0
1.194572838286977E-3 0
3.924539971741137E-3 0
-5.163240508417245E-3 0
1.1307291481173863E-2 0
-5.863919719267895E-3 0
4.999815913718804E-3 0
1.154473054570037E-3 0
4.887343660637856E-4 0
-1.0529356583479376E-3 0
2.173432158516907E-4 0
1.2449535466264813E-3 0
-2.924660327205332E-3 0
2.8510992671325667E-3 0
-3.050640584605057E-3 0
3.8596406655303454E-3 0
4.7353483065053654E-4 0
-4.191638498509706E-3 0
-3.993200591887906E-3 0
2.853235170566331E-4 0
4.031808022143082E-3 0
-3.192944402352506E-3 0
3.0984543034136584E-3 0
-2.5986109544728618E-3 0
1.2432368621213042E-3 0
4.52585683915884E-4 0
-1.3827825801232894E-3 0
9.379936576635568E-4 0
1.8625224727069805E-3 0
1.95740500600798E-3 0
4.8796739071048056E-1 0
2.423461407006952E-3 0
2.0599402094334048E-3 0
2.4048619158211675E-3 0
-3.3782707130608925E-3 0
1.6608466384112409E-3 0
-2.5611500376770107E-3 0
-4.989482016770359E-3 0
-1.5911835621303801E-3 0
1.177380476837708E-2 0
3.320536088471282E-3 0
-8.435358029717966E-4 0
4.735107951872765E-3 0
4.707951234451394E-3 0
-2.3768403414289887E-4 0
4.443591339964582E-3 0
1.3018597856628705E-2 0
-1.945707144658557E-3 0
-5.41842441696041E-3 0
-2.659580416159146E-3 0
9.001071360266995E-4 0
-3.1754776838183022E-3 0
1.081091044737744E-3 0
4.498989191804029E-3 0
-5.867334905909199E-3 0
1.2188527178830566E-2 0
-6.312541440295987E-3 0
4.714038379968657E-3 0
3.6277426015768493E-3 0
4.199152228753199E-4 0
-1.1061313054584693E-3 0
1.2701185639496908E-4 0
1.3712906987172683E-3 0
-3.012322464516811E-3 0
2.8448466545290874E-3 0
-3.0074724151913272E-3 0
3.7018149708013992E-3 0
6.150285621340054E-4 0
-4.483677767545042E-3 0
-4.2075540965153925E-3 0
3.470221675772994E-4 0
4.347712782554185E-3 0
-2.9162980263495453E-3 0
3.0434178035603143E-3 0
-2.6134193724076864E-3 0
1.0436322114588169E-3 0
5.362062540066327E-4 0
-1.4471908310162212E-3 0
9.28720368233283E-4 0
1.7593328095023952E-3 0
2.423461407006957E-3 0
4.875857838217764E-1 0
1.844564341560838E-3 0
4.660617790455819E-3 0
2.1008456888212327E-3 0
-3.4845153815246726E-3 0
1.5666361512439292E-3 0
-2.426495662706292E-3 0
-5.044125425540298E-3 0
-1.7999399687469774E-3 0
1.2027516235518105E-2 0
3.8679097676717635E-3 0
-9.973333959398798E-4 0
4.603985666382429E-3 0
4.698815955926019E-3 0
-4.2868777884884465E-4 0
4.019846049522988E-3 0
1.2284023630472573E-2 0
-1.8499958901715084E-3 0
-5.640823893401965E-3 0
-2.6386368990222718E-3 0
1.2113677526496777E-3 0
-2.9577818766053096E-3 0
8.825067735342341E-4 0
4.995562604777138E-3 0
-6.314337611199096E-3 0
1.2240503778623306E-2 0
-5.451808853127287E-3 0
1.212977847649027E-3 0
2.6848180308767606E-3 0
5.145665726723429E-4 0
-1.1216535560778535E-3 0
1.6672779401028876E-4 0
1.2497873579364325E-3 0
-2.844560777029966E-3 0
2.6312416449618572E-3 0
-2.8349604066013837E-3 0
3.598471185055349E-3 0
6.310939189029378E-4 0
-4.3539779829074475E-3 0
-4.521240993479302E-3 0
2.069174473594876E-4 0
3.93319396938606E-3 0
-2.8528433082437633E-3 0
2.6034345772053434E-3 0
-2.6142928246028177E-3 0
9.592323859652944E-4 0
4.4722787713975256E-4 0
-1.3055476456268684E-3 0
7.084584874006834E-4 0
2.0599402094334186E-3 0
1.8445643415608188E-3 0
4.879232545158932E-1 0
-5.503438076052408E-3 0
3.331096399382759E-3 0
2.1087723822651333E-3 0
-3.3438976272571366E-3 0
1.3725069806183785E-3 0
-2.409050459200072E-3 0
-5.1937633230668525E-3 0
-1.7152887649196369E-3 0
1.2014024884538966E-2 0
4.20452394275391E-3 0
-1.0068358890489959E-3 0
4.436835682411634E-3 0
5.13884286438214E-3 0
-3.400524727237552E-4 0
3.90029545313868E-3 0
1.226166268049073E-2 0
-1.4320444548505098E-3 0
-5.526340817363828E-3 0
-2.674661106062761E-3 0
1.284750134153493E-3 0
-2.9876422976428743E-3 0
1.1516867111148552E-3 0
4.712312784936284E-3 0
-5.452152694210255E-3 0
1.143788659659496E-2 0
1.7721963967840478E-2 0
-5.090078548091172E-3 0
4.487005891499716E-3 0
2.36210653080422E-3 0
-4.207265101324321E-3 0
1.7150243351170293E-3 0
-3.1178587048809906E-3 0
-7.10598840940659E-3 0
-1.8356958328731219E-3 0
1.551098380427075E-2 0
5.179760193633072E-3 0
-9.31575086181194E-4 0
6.444522819835736E-3 0
6.444522819835689E-3 0
-9.286316769501038E-4 0
5.166395133823146E-3 0
1.5544132415465059E-2 0
-1.8979802395498514E-3 0
-7.006131654287641E-3 0
-3.2612150014252033E-3 0
1.8956186057618226E-3 0
-4.390228431940569E-3 0
2.4048619158211658E-3 0
4.660617790455819E-3 0
-5.503438076052405E-3 0
6.209895075577029E-1 0
-1.831235962427073E-2 0
-1.8768027589893106E-2 0
-1.992943917672723E-3 0
1.0420552899476278E-2 0
-2.9912262683863423E-3 0
-1.0652831233190852E-2 0
2.4532585739367667E-2 0
-2.556877865949524E-2 0
2.883252416847498E-2 0
-3.0956275461834763E-2 0
-4.805942176379351E-3 0
3.078116241702624E-2 0
3.0781162417026352E-2 0
-4.786154504319502E-3 0
-3.1046124816722857E-2 0
2.905094833897487E-2 0
-2.5957694239939325E-2 0
2.5098482450976078E-2 0
-1.1357623899700959E-2 0
-2.218326301702546E-3 0
9.65394754655692E-3 0
-1.2181081426077072E-3 0
-1.9481070676030554E-2 0
-1.897471781813762E-2 0
-5.090078548090599E-3 0
9.467257685187623E-3 0
-3.7022404143429964E-3 0
3.273202821012047E-3 0
1.7616472533282268E-3 0
-3.055635043812893E-3 0
1.1745642990971439E-3 0
-2.4014665984464184E-3 0
-5.355970459436625E-3 0
-1.566150289292052E-3 0
1.1148912250495557E-2 0
3.8852453166481307E-3 0
-4.8792930918485004E-4 0
4.802753928524273E-3 0
4.475680913674976E-3 0
-5.828010402058146E-4 0
3.915570343932587E-3 0
1.1483257931035813E-2 0
-1.357458868993956E-3 0
-5.00462380682682E-3 0
-2.484532893497151E-3 0
1.5295909857629029E-3 0
-3.3782707130608877E-3 0
2.1008456888212245E-3 0
3.3310963993827586E-3 0
-1.831235962427073E-2 0
5.645416220484021E-1 0
-1.3273899173853874E-2 0
-1.3754699500141002E-2 0
-1.44833537808862E-3 0
7.607539290237927E-3 0
-2.1845426698033407E-3 0
-7.743151116501889E-3 0
1.7817167951849417E-2 0
-1.864012234772151E-2 0
2.083253096327332E-2 0
-2.2709995586875798E-2 0
-3.740434704670485E-3 0
2.2486357321955138E-2 0
2.1262547903402488E-2 0
-3.7108634548094145E-3 0
-2.3006058512383902E-2 0
2.14152829401844E-2 0
-1.924991044981794E-2 0
1.864834118968366E-2 0
-8.642044798206273E-3 0
-1.344247302871096E-3 0
6.89004881117116E-3 0
-9.671518187039796E-4 0
-1.4723213538448559E-2 0
4.48700589149883E-3 0
-3.702682360008742E-3 0
9.457540857548036E-3 0
-3.714125177592278E-3 0
3.2547145585111827E-3 0
1.7255580537122266E-3 0
-3.128397305109397E-3 0
1.0454163000732446E-3 0
-2.6033146964723032E-3 0
-5.575662499673779E-3 0
-1.6112341736021422E-3 0
1.1550953913901714E-2 0
4.570785972161869E-3 0
-4.888406970901127E-4 0
4.528694400369254E-3 0
4.587129040368455E-3 0
-5.285935260281293E-4 0
3.8565031013135156E-3 0
1.1457640202396237E-2 0
-1.4337223298137608E-3 0
-4.969688982029107E-3 0
-2.563021333877035E-3 0
1.6608466384112337E-3 0
-3.484515381524674E-3 0
2.1087723822651302E-3 0
-1.8768027589893103E-2 0
-1.3273899173853866E-2 0
5.645552652701189E-1 0
-1.3259554429805878E-2 0
-1.3744244505917269E-2 0
-1.4491097131602915E-3 0
7.58256309955303E-3 0
-2.2549739790846323E-3 0
-7.935461303972758E-3 0
1.7413437966083287E-2 0
-1.971707184575602E-2 0
2.005386024354711E-2 0
-2.417882107935352E-2 0
-4.343860456515139E-3 0
2.1488745509566892E-2 0
2.1509923002319763E-2 0
-3.6124403278712633E-3 0
-2.325390214222054E-2 0
2.1817458361978247E-2 0
-1.9787978570584026E-2 0
1.9216989232153994E-2 0
-9.20641350881609E-3 0
-1.1237251622999074E-3 0
7.179555292930085E-3 0
-1.5245553354861104E-3 0
2.3621065308049643E-3 0
3.2717034670623705E-3 0
-3.7158498053026195E-3 0
9.442383821736988E-3 0
-3.736722367241008E-3 0
3.2130986990477756E-3 0
1.64863580620339E-3 0
-3.2495908569214996E-3 0
8.832126570042187E-4 0
-2.7205732102854982E-3 0
-5.494288345602804E-3 0
-1.1304287819774558E-3 0
1.2580891083580355E-2 0
4.504026222174287E-3 0
-4.012990350355955E-4 0
4.632997647400607E-3 0
4.4176751941512205E-3 0
-7.181790776221917E-4 0
3.664799900850254E-3 0
1.1389510027214876E-2 0
-1.5043838580723217E-3 0
-4.977172617845244E-3 0
-2.5611500376770016E-3 0
1.566636151243929E-3 0
-3.343897627257137E-3 0
-1.992943917672725E-3 0
-1.3754699500140995E-2 0
-1.325955442980583E-2 0
5.645689074351331E-1 0
-1.3251498863011139E-2 0
-1.375115542203911E-2 0
-1.4898485132376954E-3 0
7.479640212887997E-3 0
-2.4954577922798545E-3 0
-8.327079432196741E-3 0
1.6847103802138386E-2 0
-1.9494477207871085E-2 0
2.1677360318342727E-2 0
-2.422810305371583E-2 0
-3.7839292417354152E-3 0
2.1472847193673216E-2 0
2.0686626840197075E-2 0
-3.5175087078258955E-3 0
-2.3818805926956368E-2 0
2.2369602570767023E-2 0
-2.0662360667723253E-2 0
2.0224842006548442E-2 0
-1.020092357402835E-2 0
-5.087129692568056E-4 0
7.407168088907353E-3 0
-4.207265101324768E-3 0
1.7587893095538487E-3 0
3.25043136851765E-3 0
-3.740076349953153E-3 0
9.410992153206614E-3 0
-3.7844558672641224E-3 0
3.1383759163121547E-3 0
1.5464925752227108E-3 0
-3.364553184338193E-3 0
8.252222760712202E-4 0
-2.735244757481988E-3 0
-5.363706143345814E-3 0
-1.1043092041000818E-3 0
1.2494900671677819E-2 0
4.377164920033235E-3 0
-4.108462195720214E-4 0
4.377331441052873E-3 0
4.146869939629849E-3 0
-8.884726775742165E-4 0
3.5165482572894983E-3 0
1.1381134778413899E-2 0
-1.5462522479568848E-3 0
-4.989482016770361E-3 0
-2.4264956627062834E-3 0
1.3725069806183685E-3 0
1.042055289947627E-2 0
-1.4483353780886026E-3 0
-1.3744244505917312E-2 0
-1.3251498863011168E-2 0
5.645722340423838E-1 0
-1.3258793359654533E-2 0
-1.3779279452889813E-2 0
-1.5440583162703617E-3 0
7.426758708775831E-3 0
-2.4207715034829085E-3 0
-7.464184883018784E-3 0
1.8107367751981244E-2 0
-1.9827892056849657E-2 0
2.2056684218915153E-2 0
-2.3253605279741005E-2 0
-4.794345020857353E-3 0
2.090127564599999E-2 0
1.9994925345772945E-2 0
-3.4057957107093808E-3 0
-2.448953227858743E-2 0
2.3157548147717803E-2 0
-2.185695261247417E-2 0
2.1608163129055624E-2 0
-1.1133146332651795E-2 0
-8.80885083673831E-4 0
1.7150243351172847E-3 0
-3.0594000268020175E-3 0
1.7190828908553756E-3 0
3.205963861840961E-3 0
-3.7894732921493804E-3 0
9.352349329798455E-3 0
-3.8571711249007472E-3 0
3.053309960249608E-3 0
1.4420134027856252E-3 0
-3.4817908784635027E-3 0
5.55569584930891E-4 0
-2.7815540076770316E-3 0
-5.5056890994890206E-3 0
-1.2609616346395702E-3 0
1.1808998491035208E-2 0
4.309386655413714E-3 0
-6.890948626971221E-4 0
4.19242922950471E-3 0
3.955338240582389E-3 0
-9.389879087980177E-4 0
3.4089695065119903E-3 0
1.1490578494022538E-2 0
-1.5911835621303734E-3 0
-5.044125425540306E-3 0
-2.4090504592000693E-3 0
-2.991226268386336E-3 0
7.607539290237917E-3 0
-1.449109713160256E-3 0
-1.3751155422039099E-2 0
-1.3258793359654547E-2 0
5.645729701541287E-1 0
-1.323805837640434E-2 0
-1.3716743462007025E-2 0
-1.364773985583299E-3 0
7.807868166883922E-3 0
-1.9668094921413528E-3 0
-7.627824337143079E-3 0
1.8916064439131578E-2 0
-1.9457542353349573E-2 0
2.099246312080405E-2 0
-2.298900459123468E-2 0
-4.782732577031189E-3 0
2.0713949609838883E-2 0
1.955841160961593E-2 0
-3.1826335932659414E-3 0
-2.5159234606627345E-2 0
2.4108974091979058E-2 0
-2.3121075444575704E-2 0
2.2266549700959856E-2 0
-1.018747362012321E-2 0
-3.117858704881127E-3 0
1.1734330774395662E-3 0
-3.132956409302417E-3 0
1.6395267384339246E-3 0
3.127291020972333E-3 0
-3.8651372512250766E-3 0
9.282416350279595E-3 0
-3.914078000528682E-3 0
2.9925158007168265E-3 0
1.3698689063819894E-3 0
-3.6744939528329515E-3 0
6.585728269535954E-4 0
-2.699197997135028E-3 0
-5.559873994240174E-3 0
-1.015874822248987E-3 0
1.1767167618917352E-2 0
3.93001991204021E-3 0
-9.219477371635445E-4 0
4.051119750258405E-3 0
3.881111503395806E-3 0
-8.73367817165773E-4 0
3.3226909182990675E-3 0
1.177380476837708E-2 0
-1.799939968746983E-3 0
-5.193763323066848E-3 0
-1.0652831233190838E-2 0
-2.184542669803348E-3 0
7.5825630995530096E-3 0
-1.4898485132376863E-3 0
-1.37792794528898E-2 0
-1.3238058376404368E-2 0
5.646722535673167E-1 0
-1.3041839164201367E-2 0
-1.3405377544862304E-2 0
-9.923986817587417E-4 0
8.099829690419653E-3 0
-1.8325669353289025E-3 0
-7.883885908794484E-3 0
1.905530753907822E-2 0
-1.8653236259395318E-2 0
2.0585249322877947E-2 0
-2.3198026622184415E-2 0
-4.939752114274445E-3 0
2.060292797582145E-2 0
1.9387737832009564E-2 0
-2.926956915374114E-3 0
-2.560295481028327E-2 0
2.4990727046326305E-2 0
-2.310616812038809E-2 0
2.0938419623263312E-2 0
-7.105988409406529E-3 0
-2.390376522391005E-3 0
1.0530032208377917E-3 0
-3.257062391005821E-3 0
1.5271946327031793E-3 0
3.0339379532035556E-3 0
-3.924719035919223E-3 0
9.284357527972863E-3 0
-3.830805119755462E-3 0
3.1879983929437266E-3 0
1.768354868811419E-3 0
-3.0723750908583647E-3 0
1.1258464134749956E-3 0
-2.6033749251263135E-3 0
-5.363680988300802E-3 0
-1.4502001536498379E-3 0
1.1258774817877282E-2 0
3.6420008056931748E-3 0
-1.0155044239542061E-3 0
4.03481301846154E-3 0
3.9818511473248925E-3 0
-7.817428140374464E-4 0
3.320536088471284E-3 0
1.2027516235518107E-2 0
-1.7152887649196373E-3 0
2.4532585739367663E-2 0
-7.7431511165018865E-3 0
-2.254973979084617E-3 0
7.479640212887997E-3 0
-1.544058316270355E-3 0
-1.3716743462006992E-2 0
-1.3041839164201381E-2 0
5.649978907581532E-1 0
-1.2636179281379806E-2 0
-1.3077120656193842E-2 0
-7.678492577666256E-4 0
8.181733290689962E-3 0
-1.974299657414451E-3 0
-8.02415818861327E-3 0
1.769729350940156E-2 0
-1.9025825216434894E-2 0
2.0449086122954332E-2 0
-2.346001589364731E-2 0
-4.889074505011869E-3 0
2.0430518294149953E-2 0
1.960680343954885E-2 0
-2.855224789576273E-3 0
-2.5709343611095226E-2 0
2.460119343783388E-2 0
-2.1474143396236656E-2 0
-1.835695832873073E-3 0
-5.301414581499552E-3 0
-2.559680990888259E-3 0
8.750241017624709E-4 0
-3.404142944064972E-3 0
1.4064184880468182E-3 0
2.9732999433256966E-3 0
-3.836401935039324E-3 0
9.571733674164237E-3 0
-3.3699791010541836E-3 0
3.916661411398922E-3 0
2.3393778699136738E-3 0
-3.0528378813608637E-3 0
1.1105384029041546E-3 0
-2.8621785125615773E-3 0
-5.782566246712549E-3 0
-1.691081398268008E-3 0
1.1104276551595224E-2 0
3.6154864663926877E-3 0
-8.317515557262187E-4 0
4.118077532602915E-3 0
4.333732463921011E-3 0
-8.435358029717895E-4 0
3.8679097676717626E-3 0
1.2014024884538958E-2 0
-2.5568778659495243E-2 0
1.7817167951849427E-2 0
-7.935461303972774E-3 0
-2.495457792279851E-3 0
7.42675870877582E-3 0
-1.3647739855833115E-3 0
-1.3405377544862313E-2 0
-1.2636179281379839E-2 0
5.655367227259551E-1 0
-1.2005717790290256E-2 0
-1.283628148789147E-2 0
-8.416170920905459E-4 0
8.653138948091603E-3 0
-2.048986937297126E-3 0
-7.737117195273218E-3 0
1.7426646151459457E-2 0
-1.9700323164935803E-2 0
2.0341467458577397E-2 0
-2.373670051039835E-2 0
-4.433581875805029E-3 0
2.0130569033870022E-2 0
2.038824675905535E-2 0
-3.076011540414087E-3 0
-2.45842960576255E-2 0
2.3206860581172873E-2 0
1.5510983804270576E-2 0
-1.4349186209754348E-3 0
-5.485518228644775E-3 0
-2.751875731340783E-3 0
7.478132092550299E-4 0
-3.529981616940777E-3 0
1.3529101005632974E-3 0
3.1848749180541183E-3 0
-3.3511067225092945E-3 0
1.0143882035077623E-2 0
-2.9643456069550736E-3 0
3.8432707796457223E-3 0
2.184192331616456E-3 0
-3.1412311898581717E-3 0
1.012597199778672E-3 0
-2.8034661137667457E-3 0
-5.726926071820629E-3 0
-1.7276724091359404E-3 0
1.1304265220801345E-2 0
3.877315378322211E-3 0
-5.370867250610922E-4 0
4.294868671142091E-3 0
4.735107951872757E-3 0
-9.973333959398857E-4 0
4.204523942753917E-3 0
2.8832524168474972E-2 0
-1.864012234772151E-2 0
1.741343796608331E-2 0
-8.327079432196738E-3 0
-2.4207715034829064E-3 0
7.807868166883925E-3 0
-9.923986817587313E-4 0
-1.3077120656193838E-2 0
-1.2005717790290282E-2 0
5.667848024791655E-1 0
-1.0909330335321581E-2 0
-1.230614456564001E-2 0
-8.558794296202552E-4 0
8.224781710895893E-3 0
-2.7324938376880573E-3 0
-9.47475521249906E-3 0
1.6302137058110552E-2 0
-1.9956455143740563E-2 0
2.0995514578638828E-2 0
-2.4021022266959704E-2 0
-3.742668707066225E-3 0
1.974231549191302E-2 0
2.1786072326548864E-2 0
-4.407697993309955E-3 0
-2.383928515206938E-2 0
5.17976019363335E-3 0
1.14410163676825E-2 0
-1.5026596363952472E-3 0
-5.6361126581096176E-3 0
-2.8429472994002504E-3 0
5.053381027297304E-4 0
-3.658518958566044E-3 0
1.7766025129518186E-3 0
3.952237520555589E-3 0
-2.7619481339712613E-3 0
1.0671432247884503E-2 0
-2.800755457568137E-3 0
3.915309802991033E-3 0
2.4476245404692876E-3 0
-3.144152634696243E-3 0
5.243179731734066E-4 0
-3.018777961129449E-3 0
-5.78802641027887E-3 0
-1.5074968597536653E-3 0
1.1812900185623363E-2 0
4.299782395328662E-3 0
-2.5992427260189307E-4 0
4.707951234451396E-3 0
4.603985666382422E-3 0
-1.0068358890489974E-3 0
-3.095627546183476E-2 0
2.0832530963273335E-2 0
-1.971707184575604E-2 0
1.684710380213838E-2 0
-7.464184883018787E-3 0
-1.9668094921413584E-3 0
8.099829690419655E-3 0
-7.678492577666181E-4 0
-1.2836281487891463E-2 0
-1.0909330335321574E-2 0
5.691165164358095E-1 0
-9.683459808427953E-3 0
-1.3212251449991533E-2 0
-5.342087127680335E-4 0
5.595113018343814E-3 0
-5.556134889155098E-3 0
-9.657701287234938E-3 0
1.786909377704408E-2 0
-1.9774266493325893E-2 0
2.1640214984805145E-2 0
-2.428899170748156E-2 0
-3.3862702173559343E-3 0
1.9956580574878573E-2 0
2.2986133445952645E-2 0
-4.659663273860354E-3 0
-9.31575086181547E-4 0
4.07988590401751E-3 0
1.1508845597413189E-2 0
-1.3342999888026502E-3 0
-5.383264297598156E-3 0
-2.8133263387553832E-3 0
6.973122082628375E-4 0
-3.0485699768435935E-3 0
2.3591395156891144E-3 0
4.181435918074934E-3 0
-2.18573597071595E-3 0
1.0860014914601384E-2 0
-3.0166114992906615E-3 0
4.349272634648276E-3 0
1.6749065052380136E-3 0
-3.767843968642111E-3 0
6.98741065918889E-4 0
-2.9286928545508924E-3 0
-5.313681240647893E-3 0
-1.1533455265483581E-3 0
1.1944695435004296E-2 0
4.332924984882456E-3 0
-2.3768403414290703E-4 0
4.698815955926014E-3 0
4.436835682411633E-3 0
-4.805942176379321E-3 0
-2.2709995586875805E-2 0
2.0053860243547106E-2 0
-1.949447720787108E-2 0
1.8107367751981275E-2 0
-7.627824337143073E-3 0
-1.832566935328899E-3 0
8.18173329068995E-3 0
-8.416170920905627E-4 0
-1.230614456564002E-2 0
-9.68345980842797E-3 0
5.684120022392367E-1 0
-1.118755935693924E-2 0
-1.1964214554269385E-2 0
-2.008256664937168E-3 0
5.496915609444052E-3 0
-2.448031917642941E-3 0
-8.296344098401427E-3 0
1.8609956888597443E-2 0
-1.9971003106243324E-2 0
2.2683923938531563E-2 0
-2.511155674486665E-2 0
-2.2669194559358555E-3 0
2.0768350080556428E-2 0
2.2563397794325986E-2 0
6.44452281983606E-3 0
-4.941548765107449E-4 0
4.472292775774531E-3 0
1.248675726732426E-2 0
-1.0653344493346615E-3 0
-5.513493573401422E-3 0
-2.680985129594208E-3 0
1.1422082304738596E-3 0
-3.0499979486610074E-3 0
2.347839652754385E-3 0
4.417890405905609E-3 0
-2.643532238612039E-3 0
1.1814130664855678E-2 0
-3.036340275662318E-3 0
3.973413898639854E-3 0
1.9576646270706025E-3 0
-3.336493854544388E-3 0
1.1686221868650122E-3 0
-2.7218423572966397E-3 0
-5.4218934215049435E-3 0
-1.4679252735016835E-3 0
1.2704210693000461E-2 0
4.443591339964584E-3 0
-4.2868777884884113E-4 0
5.1388428643821425E-3 0
3.078116241702624E-2 0
-3.740434704670487E-3 0
-2.4178821079353516E-2 0
2.167736031834273E-2 0
-1.982789205684967E-2 0
1.8916064439131578E-2 0
-7.883885908794477E-3 0
-1.974299657414447E-3 0
8.6531389480916E-3 0
-8.558794296202573E-4 0
-1.321225144999153E-2 0
-1.1187559356939242E-2 0
5.763111330033657E-1 0
-1.036776639808298E-2 0
-1.1991665778687793E-2 0
-4.0956167003300864E-4 0
7.911829999933952E-3 0
-1.4425250962667971E-3 0
-9.051516673695503E-3 0
2.0654147506850688E-2 0
-2.1765581370180847E-2 0
2.5052495988405858E-2 0
-2.7344472243080332E-2 0
-2.1822871691027554E-3 0
2.2969934313118154E-2 0
6.444522819835571E-3 0
4.808979495850008E-3 0
-3.903475007025377E-4 0
4.598160038430189E-3 0
1.245592591691253E-2 0
-1.25315716072721E-3 0
-5.578086861780969E-3 0
-2.619736742125183E-3 0
1.1076984702043013E-3 0
-3.3048785109960972E-3 0
1.9450439375547223E-3 0
3.976193373969658E-3 0
-3.0363402756623105E-3 0
1.1814130664855692E-2 0
-2.6408617834679403E-3 0
4.405764741440002E-3 0
2.378417433401411E-3 0
-3.1098961778301547E-3 0
1.2466139852052335E-3 0
-2.8533773609675343E-3 0
-5.2354222734712986E-3 0
-1.4875902530089944E-3 0
1.3018597856628716E-2 0
4.019846049522993E-3 0
-3.4005247272376007E-4 0
3.078116241702635E-2 0
2.248635732195514E-2 0
-4.343860456515126E-3 0
-2.4228103053715838E-2 0
2.205668421891515E-2 0
-1.9457542353349573E-2 0
1.9055307539078234E-2 0
-8.02415818861327E-3 0
-2.0489869372971215E-3 0
8.224781710895903E-3 0
-5.342087127680335E-4 0
-1.1964214554269388E-2 0
-1.0367766398082977E-2 0
5.763111330033657E-1 0
-1.1165206497225324E-2 0
-1.331374848405984E-2 0
-5.97957138987131E-4 0
8.13847288074989E-3 0
-1.0564554173075724E-3 0
-9.420522300500646E-3 0
2.1377089657656192E-2 0
-2.3474049632929043E-2 0
2.6561433373434144E-2 0
-2.8983230339165583E-2 0
-1.7711770020466392E-3 0
-9.286316769500358E-4 0
4.281045932696778E-3 0
4.570804572970442E-3 0
-1.974301209454113E-4 0
4.396722109064657E-3 0
1.1840770500734168E-2 0
-1.0546135595282927E-3 0
-5.3874861182643344E-3 0
-2.8819413742925495E-3 0
6.744334202908037E-4 0
-3.759184414853685E-3 0
1.6748645639330722E-3 0
4.346463554146163E-3 0
-3.013911438974262E-3 0
1.0856384634505922E-2 0
-2.176936553182146E-3 0
4.161623349563531E-3 0
2.3971794750484283E-3 0
-3.115598513288932E-3 0
8.117543630377555E-4 0
-3.013237935858505E-3 0
-5.040245041203988E-3 0
-1.9457071446585521E-3 0
1.2284023630472572E-2 0
3.9002954531386783E-3 0
-4.786154504319471E-3 0
2.1262547903402502E-2 0
2.148874550956688E-2 0
-3.783929241735414E-3 0
-2.3253605279741E-2 0
2.099246312080405E-2 0
-1.8653236259395318E-2 0
1.7697293509401572E-2 0
-7.737117195273219E-3 0
-2.732493837688055E-3 0
5.595113018343839E-3 0
-2.0082566649371495E-3 0
-1.1991665778687788E-2 0
-1.116520649722532E-2 0
5.683856471366933E-1 0
-9.620843739652558E-3 0
-1.245279495369455E-2 0
-5.409299577648959E-4 0
7.608444714251779E-3 0
-7.905037105163671E-4 0
-9.457805204651178E-3 0
2.107293046436434E-2 0
-2.3951321171650938E-2 0
2.4904727458919872E-2 0
-2.626092510600983E-2 0
5.166395133823084E-3 0
-8.749306141833914E-4 0
4.478546075159998E-3 0
4.774832370468483E-3 0
-3.031392949011395E-4 0
4.359619596893841E-3 0
1.1751189700320798E-2 0
-1.4584477253720795E-3 0
-5.818136834612416E-3 0
-3.005869757259199E-3 0
5.243737930566239E-4 0
-3.1526340400249223E-3 0
2.4603796574016335E-3 0
3.9030497111089755E-3 0
-2.7921587751045733E-3 0
1.0667290318460764E-2 0
-2.7621137714040514E-3 0
3.9551817400117935E-3 0
1.775653541458943E-3 0
-3.6704124891761805E-3 0
5.466427425926647E-4 0
-2.9310952170793175E-3 0
-5.418424416960414E-3 0
-1.8499958901715065E-3 0
1.2261662680490728E-2 0
-3.1046124816722854E-2 0
-3.7108634548094115E-3 0
2.1509923002319766E-2 0
2.147284719367322E-2 0
-4.794345020857362E-3 0
-2.2989004591234697E-2 0
2.058524932287795E-2 0
-1.90258252164349E-2 0
1.7426646151459467E-2 0
-9.474755212499067E-3 0
-5.556134889155092E-3 0
5.496915609444063E-3 0
-4.0956167003300837E-4 0
-1.3313748484059845E-2 0
-9.620843739652525E-3 0
5.690912601836853E-1 0
-1.0907620126701056E-2 0
-1.2848512102664956E-2 0
-6.632381751777135E-4 0
7.748089225029708E-3 0
-1.0893345986281075E-3 0
-9.223479878408184E-3 0
1.997740722509312E-2 0
-2.3499240038151258E-2 0
2.3878281404576075E-2 0
1.5544132415465045E-2 0
3.7844003845895566E-3 0
-6.187173109370141E-4 0
4.448952533068485E-3 0
4.45472987897802E-3 0
-6.409076571706729E-4 0
3.946985786261022E-3 0
1.1261898001338661E-2 0
-1.7099678087658828E-3 0
-5.726913214170972E-3 0
-2.8165294106216243E-3 0
1.0364198255998097E-3 0
-3.1731858812982603E-3 0
2.2151094601552753E-3 0
3.8239459485291294E-3 0
-2.9643684910819375E-3 0
1.017004603107098E-2 0
-3.4074624258354524E-3 0
3.268414447318458E-3 0
1.2602447152111097E-3 0
-3.4515514433972024E-3 0
6.914554208181182E-4 0
-2.659580416159133E-3 0
-5.640823893401972E-3 0
-1.432044454850518E-3 0
2.9050948338974866E-2 0
-2.3006058512383906E-2 0
-3.6124403278712603E-3 0
2.0686626840197075E-2 0
2.090127564599999E-2 0
-4.782732577031172E-3 0
-2.319802662218441E-2 0
2.0449086122954346E-2 0
-1.9700323164935796E-2 0
1.630213705811055E-2 0
-9.657701287234938E-3 0
-2.4480319176429484E-3 0
7.911829999933945E-3 0
-5.979571389871316E-4 0
-1.2452794953694538E-2 0
-1.0907620126701056E-2 0
5.669470343205851E-1 0
-1.2329404430890915E-2 0
-1.2646742325233261E-2 0
-1.4093579597259035E-3 0
7.988180673313257E-3 0
-2.046579621421672E-3 0
-9.800554759522476E-3 0
1.9718270729447266E-2 0
-2.0976001306542088E-2 0
-1.8979802395497002E-3 0
1.1428593052289573E-2 0
3.8128329309626667E-3 0
-7.099463086504364E-4 0
4.186478497774391E-3 0
4.228030362672473E-3 0
-9.027442639348189E-4 0
3.6475987117130723E-3 0
1.1104304558224578E-2 0
-1.708812303932183E-3 0
-5.752119596800722E-3 0
-2.907949143767606E-3 0
1.172128566439144E-3 0
-3.1134025574042824E-3 0
2.376434550295612E-3 0
3.919280438772728E-3 0
-3.4263365468642126E-3 0
9.693178454937465E-3 0
-4.024455053658816E-3 0
3.1964323933122178E-3 0
1.212550599293526E-3 0
-3.3106067397095764E-3 0
9.001071360266867E-4 0
-2.638636899022261E-3 0
-5.526340817363825E-3 0
-2.5957694239939322E-2 0
2.1415282940184407E-2 0
-2.3253902142220544E-2 0
-3.5175087078258816E-3 0
1.9994925345772945E-2 0
2.07139496098389E-2 0
-4.939752114274455E-3 0
-2.3460015893647317E-2 0
2.0341467458577393E-2 0
-1.9956455143740545E-2 0
1.7869093777044077E-2 0
-8.296344098401437E-3 0
-1.4425250962667984E-3 0
8.13847288074989E-3 0
-5.409299577648919E-4 0
-1.2848512102664937E-2 0
-1.2329404430890938E-2 0
5.662187007788119E-1 0
-1.3638465505374252E-2 0
-1.2178120747746383E-2 0
-2.6502616054628145E-3 0
8.519219737836427E-3 0
-2.917120639685335E-3 0
-8.365683894536175E-3 0
1.9302808538682166E-2 0
-7.0061316542879065E-3 0
-1.3683925865151788E-3 0
1.1450106361877311E-2 0
3.672208785897962E-3 0
-8.69201691516664E-4 0
3.974701456800332E-3 0
4.061778227629057E-3 0
-1.0155081010603064E-3 0
3.6098379604842766E-3 0
1.1301123521322917E-2 0
-1.499933870262661E-3 0
-5.291654559688609E-3 0
-2.706634152676637E-3 0
1.2314057805852287E-3 0
-3.137625217542643E-3 0
1.7680906577403003E-3 0
3.271555782742497E-3 0
-4.018805369618507E-3 0
9.600405697481607E-3 0
-4.346347991142865E-3 0
3.475815248902905E-3 0
1.1945728382869638E-3 0
-3.17547768381829E-3 0
1.2113677526496669E-3 0
-2.674661106062753E-3 0
2.509848245097608E-2 0
-1.9249910449817942E-2 0
2.1817458361978265E-2 0
-2.3818805926956375E-2 0
-3.40579571070937E-3 0
1.955841160961593E-2 0
2.060292797582144E-2 0
-4.889074505011887E-3 0
-2.373670051039836E-2 0
2.099551457863884E-2 0
-1.97742664933259E-2 0
1.8609956888597422E-2 0
-9.0515166736955E-3 0
-1.0564554173075748E-3 0
7.6084447142517825E-3 0
-6.632381751777067E-4 0
-1.2646742325233275E-2 0
-1.3638465505374273E-2 0
5.665406309027093E-1 0
-1.5045842178744207E-2 0
-1.1388816609409772E-2 0
-3.954675599496835E-3 0
9.596390566268969E-3 0
-3.588191367743464E-3 0
-7.894300810462513E-3 0
-3.2612150014248594E-3 0
-5.003683577528941E-3 0
-1.429229586925718E-3 0
1.1398693963509543E-2 0
3.5276657685758984E-3 0
-9.310115640632976E-4 0
3.881090997908442E-3 0
4.024182643206741E-3 0
-8.508715194344585E-4 0
3.8604762650062434E-3 0
1.1830214439314916E-2 0
-1.1115924972867933E-3 0
-5.401835875256739E-3 0
-2.8734349072157468E-3 0
7.700019973365828E-4 0
-3.687729755878687E-3 0
1.2770911018219857E-3 0
3.2155396610264435E-3 0
-4.335699879985705E-3 0
9.924019146036129E-3 0
-4.660898530938481E-3 0
3.924539971741131E-3 0
1.0810910447377356E-3 0
-2.957781876605291E-3 0
1.284750134153484E-3 0
-1.1357623899700955E-2 0
1.8648341189683657E-2 0
-1.9787978570584043E-2 0
2.2369602570767037E-2 0
-2.4489532278587436E-2 0
-3.1826335932659457E-3 0
1.938773783200955E-2 0
2.043051829414994E-2 0
-4.433581875805023E-3 0
-2.4021022266959718E-2 0
2.1640214984805155E-2 0
-1.997100310624333E-2 0
2.065414750685067E-2 0
-9.420522300500642E-3 0
-7.905037105163623E-4 0
7.7480892250297115E-3 0
-1.409357959725907E-3 0
-1.2178120747746374E-2 0
-1.5045842178744235E-2 0
5.674081924830079E-1 0
-1.6612231857007425E-2 0
-1.0077682448569684E-2 0
-4.99679088941079E-3 0
1.0091637354832915E-2 0
-3.0323070833738037E-3 0
1.8956186057614837E-3 0
-2.480565146154169E-3 0
-4.963140875889297E-3 0
-1.4973252694099066E-3 0
1.1386119308482812E-2 0
3.4089606728003492E-3 0
-8.813143080823506E-4 0
3.9624486824182134E-3 0
4.082285940804333E-3 0
-5.856661292222739E-4 0
4.247072916682797E-3 0
1.190815163568352E-2 0
-1.4784366266603868E-3 0
-5.224910920312602E-3 0
-2.976694499868485E-3 0
5.993538710048491E-4 0
-3.4029760231798927E-3 0
1.2483491526545263E-3 0
3.4952080205050487E-3 0
-4.6529411009908015E-3 0
1.050236271359677E-2 0
-5.163240508417231E-3 0
4.49898919180404E-3 0
8.825067735342244E-4 0
-2.987642297642889E-3 0
-2.2183263017025454E-3 0
-8.642044798206273E-3 0
1.9216989232154015E-2 0
-2.066236066772327E-2 0
2.3157548147717807E-2 0
-2.515923460662735E-2 0
-2.926956915374112E-3 0
1.9606803439548872E-2 0
2.0130569033870015E-2 0
-3.74266870706622E-3 0
-2.4288991707481552E-2 0
2.2683923938531574E-2 0
-2.176558137018085E-2 0
2.1377089657656195E-2 0
-9.457805204651181E-3 0
-1.0893345986281093E-3 0
7.988180673313262E-3 0
-2.650261605462807E-3 0
-1.1388816609409802E-2 0
-1.661223185700742E-2 0
5.690690815111336E-1 0
-1.864543606613795E-2 0
-8.439217828219612E-3 0
-5.0881779347354324E-3 0
9.050388906445066E-3 0
-4.390228431940298E-3 0
1.5322616751489739E-3 0
-2.5588090192284817E-3 0
-4.97375386428386E-3 0
-1.5462268935914297E-3 0
1.1485563859194286E-2 0
3.311592797798294E-3 0
-8.009657578011644E-4 0
4.294544772674501E-3 0
4.218393360363099E-3 0
-3.635001915748829E-4 0
4.320111977375035E-3 0
1.2746650443194927E-2 0
-1.5300300032034773E-3 0
-5.027432925242002E-3 0
-2.8275152498897552E-3 0
7.679209036433335E-4 0
-3.271401615089479E-3 0
1.2137706320280914E-3 0
3.935668854680643E-3 0
-5.158257506976045E-3 0
1.1307291481173853E-2 0
-5.867334905909183E-3 0
4.995562604777156E-3 0
1.1516867111148667E-3 0
9.65394754655692E-3 0
-1.3442473028711043E-3 0
-9.206413508816104E-3 0
2.0224842006548446E-2 0
-2.1856952612474174E-2 0
2.4108974091979058E-2 0
-2.5602954810283275E-2 0
-2.85522478957627E-3 0
2.0388246759055345E-2 0
1.9742315491913024E-2 0
-3.3862702173559247E-3 0
-2.5111556744866672E-2 0
2.5052495988405865E-2 0
-2.347404963292904E-2 0
2.107293046436433E-2 0
-9.223479878408191E-3 0
-2.0465796214216613E-3 0
8.519219737836406E-3 0
-3.954675599496818E-3 0
-1.0077682448569677E-2 0
-1.864543606613796E-2 0
5.719962469489538E-1 0
-2.1614297193798385E-2 0
-7.520655158962029E-3 0
-3.5235641363946806E-3 0
2.40486191582103E-3 0
-3.376622112830007E-3 0
1.6626361617407975E-3 0
-2.5611830382970555E-3 0
-4.992831344546898E-3 0
-1.5982932029073903E-3 0
1.1764703878566029E-2 0
3.3128868489250124E-3 0
-8.525373315035684E-4 0
4.701976210554625E-3 0
4.560884545404544E-3 0
-4.4819860855044655E-4 0
4.346660611985248E-3 0
1.311552858460805E-2 0
-1.7351949516871792E-3 0
-5.27134691458992E-3 0
-2.6264748259025457E-3 0
9.091545529832731E-4 0
-3.1678933826863194E-3 0
1.0902693342796576E-3 0
4.506020434298141E-3 0
-5.863919719267878E-3 0
1.2188527178830552E-2 0
-6.31433761119911E-3 0
4.7123127849363E-3 0
-1.2181081426077074E-3 0
6.890048811171169E-3 0
-1.1237251622998937E-3 0
-1.020092357402836E-2 0
2.1608163129055624E-2 0
-2.3121075444575718E-2 0
2.4990727046326308E-2 0
-2.570934361109524E-2 0
-3.0760115404140764E-3 0
2.1786072326548868E-2 0
1.9956580574878556E-2 0
-2.266919455935842E-3 0
-2.734447224308033E-2 0
2.6561433373434137E-2 0
-2.3951321171650934E-2 0
1.9977407225093127E-2 0
-9.80055475952249E-3 0
-2.9171206396853343E-3 0
9.596390566268981E-3 0
-4.996790889410808E-3 0
-8.439217828219601E-3 0
-2.1614297193798416E-2 0
5.765321173909802E-1 0
-2.483834881257362E-2 0
-9.638281520383516E-3 0
4.6606177904558645E-3 0
2.101193164446156E-3 0
-3.484567790342956E-3 0
1.5649051561703704E-3 0
-2.4308208362653107E-3 0
-5.0506601162918375E-3 0
-1.8045086520925957E-3 0
1.2035359527444528E-2 0
3.9126206117234535E-3 0
-9.049342387338105E-4 0
4.7167350003143125E-3 0
4.659946493861357E-3 0
-5.266211784640157E-4 0
4.117779449138153E-3 0
1.2322895008744292E-2 0
-1.962753924973757E-3 0
-5.733201906554595E-3 0
-2.683385352501607E-3 0
1.2035791274987882E-3 0
-2.9532813561161564E-3 0
8.891160286779525E-4 0
4.9998159137187624E-3 0
-6.312541440295961E-3 0
1.2240503778623284E-2 0
-5.452152694210257E-3 0
-1.9481070676030547E-2 0
-9.671518187039845E-4 0
7.179555292930093E-3 0
-5.087129692568053E-4 0
-1.1133146332651792E-2 0
2.2266549700959863E-2 0
-2.310616812038811E-2 0
2.4601193437833905E-2 0
-2.45842960576255E-2 0
-4.40769799330997E-3 0
2.298613344595266E-2 0
2.076835008055643E-2 0
-2.182287169102759E-3 0
-2.898323033916559E-2 0
2.4904727458919872E-2 0
-2.3499240038151254E-2 0
1.971827072944725E-2 0
-8.36568389453616E-3 0
-3.5881913677434847E-3 0
1.0091637354832934E-2 0
-5.0881779347354515E-3 0
-7.5206551589619836E-3 0
-2.4838348812573678E-2 0
5.786218387610695E-1 0
-2.0867324950755762E-2 0
-5.5034380760524615E-3 0
3.3311295926042486E-3 0
2.10832895840496E-3 0
-3.345465987510262E-3 0
1.3695235600788432E-3 0
-2.4129820756174972E-3 0
-5.194949779226985E-3 0
-1.7037369323153698E-3 0
1.2070971010199605E-2 0
4.341728499492121E-3 0
-7.004711012425226E-4 0
4.641532045052239E-3 0
5.132655808992026E-3 0
-3.3386541733363827E-4 0
3.695604982240639E-3 0
1.195527114020585E-2 0
-1.5691841610017078E-3 0
-5.583401496954831E-3 0
-2.6860486011316717E-3 0
1.2857358159408152E-3 0
-2.9834974484479943E-3 0
1.154473054570043E-3 0
4.7140383799686505E-3 0
-5.45180885312727E-3 0
1.143788659659494E-2 0
-1.897471781813762E-2 0
-1.4723213538448543E-2 0
-1.5245553354861037E-3 0
7.40716808890735E-3 0
-8.808850836738364E-4 0
-1.0187473620123216E-2 0
2.0938419623263323E-2 0
-2.1474143396236656E-2 0
2.3206860581172883E-2 0
-2.3839285152069397E-2 0
-4.659663273860359E-3 0
2.2563397794325982E-2 0
2.2969934313118143E-2 0
-1.7711770020466368E-3 0
-2.6260925106009837E-2 0
2.3878281404576075E-2 0
-2.0976001306542078E-2 0
1.9302808538682163E-2 0
-7.894300810462525E-3 0
-3.0323070833737876E-3 0
9.050388906445033E-3 0
-3.523564136394661E-3 0
-9.638281520383492E-3 0
-2.086732495075581E-2 0
5.75331754746219E-1 0
