%%MatrixMarket matrix array complex general
%
50 50
4.697489983683159E-1 0
2.208589523265299E-3 0
-1.2700073321091914E-3 0
1.1978886746281444E-3 0
3.093849955502276E-4 0
4.238631634582951E-4 0
3.3831269984497068E-3 0
-5.329154898656212E-4 0
3.5062427530131363E-3 0
-6.293898916105338E-4 0
2.123136783770968E-3 0
4.644108733367402E-3 0
-8.747641681906858E-3 0
-8.747641681906927E-3 0
4.6422623712759825E-3 0
2.131520510886835E-3 0
-6.49658118127767E-4 0
3.541773075121246E-3 0
-5.82302177429136E-4 0
3.4371155340827604E-3 0
3.8784750161216487E-4 0
2.9218111875310964E-4 0
1.3252002831753704E-3 0
-1.481417215314637E-3 0
2.4449740315323383E-3 0
2.2048035641671743E-3 0
-8.745111718206234E-3 0
2.1916172488283523E-3 0
-1.0068488849333312E-2 0
3.492958789157844E-3 0
-9.579488606777865E-3 0
3.0291844095532315E-3 0
-4.284298056617957E-3 0
-2.3981955046046863E-3 0
1.2870191164023595E-2 0
2.0579766598969053E-3 0
2.276114303399321E-5 0
-3.4190108834871447E-3 0
-3.41901088348695E-3 0
1.4667574292173001E-5 0
2.094726911669349E-3 0
1.2776841767987442E-2 0
-2.2121111434453378E-3 0
-4.615021288967797E-3 0
3.5785313743462166E-3 0
-1.0447645756620867E-2 0
4.7592218318462335E-3 0
-1.1758138183848993E-2 0
3.8679501342861245E-3 0
-9.982168508764764E-3 0
2.2085895232652982E-3 0
4.83848429890679E-1 0
1.5893180870605848E-3 0
-9.228737075060267E-4 0
8.613623790833413E-4 0
2.204221655967185E-4 0
3.1532456984280366E-4 0
2.494968410050226E-3 0
-3.125390394344509E-4 0
2.6745415178177777E-3 0
-2.789363052131716E-4 0
1.6200521534992024E-3 0
3.5541524932483667E-3 0
-6.37381079091445E-3 0
-6.097125539711345E-3 0
3.305683487142077E-3 0
1.4968511122706103E-3 0
-5.430424681870563E-4 0
2.5982576763328305E-3 0
-4.526581678572013E-4 0
2.5792239467114296E-3 0
2.473518268137528E-4 0
2.908711952396911E-4 0
9.092989620042336E-4 0
-9.750874736878733E-4 0
-8.74511171820729E-3 0
1.124438658057041E-3 0
-6.407539903547501E-3 0
1.564723468279277E-3 0
-7.346751438816565E-3 0
2.5137237792301204E-3 0
-7.067697179945554E-3 0
2.119027632888994E-3 0
-3.220942879564907E-3 0
-1.805371944589539E-3 0
9.505870760517824E-3 0
1.6542404298992618E-3 0
8.628471697007827E-5 0
-2.4177698860485294E-3 0
-2.4492470871676567E-3 0
-1.1027745520781219E-4 0
1.5615178615866025E-3 0
9.343060003610746E-3 0
-1.5358082030668863E-3 0
-3.3732455196280784E-3 0
2.763802827825126E-3 0
-7.75686492684208E-3 0
3.7674313982104988E-3 0
-8.480303372824986E-3 0
2.2703563970925033E-3 0
-1.2700073321091911E-3 0
1.5893180870605436E-3 0
4.838330726969693E-1 0
1.5713991275752585E-3 0
-9.398328814708053E-4 0
8.513709089238952E-4 0
2.28322036512909E-4 0
3.5707963287933157E-4 0
2.6079276109488765E-3 0
-1.0971681694273638E-4 0
3.098284736086845E-3 0
-3.332791647641961E-5 0
1.7732291174695058E-3 0
3.775742874241152E-3 0
-6.2173947528197555E-3 0
-6.369760390023975E-3 0
3.289494692658926E-3 0
1.5258757793829086E-3 0
-5.328285944193638E-4 0
2.6637604237229116E-3 0
-4.854243135359341E-4 0
2.6708543804819154E-3 0
1.800197325363053E-4 0
3.6549079347468716E-4 0
9.003061955709286E-4 0
2.191617248829862E-3 0
-6.406494970321352E-3 0
1.0869126209446622E-3 0
-6.454934129533592E-3 0
1.5073048060512161E-3 0
-7.416653404380593E-3 0
2.4279480228616523E-3 0
-7.168594212074114E-3 0
2.023852116037476E-3 0
-3.272475218194821E-3 0
-1.6338083555325503E-3 0
9.671934691097714E-3 0
1.8406202636137398E-3 0
2.2427419392159834E-4 0
-2.3354102991240736E-3 0
-2.32858009727461E-3 0
1.6596434607388824E-4 0
1.6568898333513575E-3 0
9.426277837658745E-3 0
-1.5002092113670271E-3 0
-3.3674505304668724E-3 0
2.8772604855077373E-3 0
-7.89003433504968E-3 0
3.708384007072752E-3 0
-8.191699411356177E-3 0
1.197888674628144E-3 0
-9.228737075059951E-4 0
1.5713991275752473E-3 0
4.838144711941086E-1 0
1.5557102790375087E-3 0
-9.470148045451709E-4 0
8.623302450306802E-4 0
2.695852647516387E-4 0
4.5562913570455207E-4 0
2.7551696084316085E-3 0
6.477575204908126E-5 0
2.962951736119951E-3 0
-2.0597259585219532E-4 0
1.835063275274641E-3 0
3.4122729177433306E-3 0
-6.191627143672219E-3 0
-6.081619521791684E-3 0
3.4201611040047034E-3 0
1.6387964048647447E-3 0
-5.094044742349172E-4 0
2.74555938154446E-3 0
-5.495399293636348E-4 0
2.7759580342569213E-3 0
1.1106929054925343E-4 0
3.610863324941372E-4 0
-1.006848884933469E-2 0
1.5683207091945846E-3 0
-6.450737880978161E-3 0
1.0335381982941217E-3 0
-6.520223681231924E-3 0
1.424509147351218E-3 0
-7.522732530413358E-3 0
2.2992141506905403E-3 0
-7.303169391621234E-3 0
1.9198400035328274E-3 0
-3.3192196316718637E-3 0
-1.676646331381E-3 0
1.0248620603010593E-2 0
1.9695781591364155E-3 0
3.6579764137867403E-4 0
-1.9913903338862325E-3 0
-2.0543611320275896E-3 0
3.0226134093657716E-4 0
1.6583689068382817E-3 0
9.512225038519128E-3 0
-1.5339237927107145E-3 0
-3.3208605595365015E-3 0
2.917119299686029E-3 0
-7.752451707677446E-3 0
3.1690979936904186E-3 0
3.0938499555023107E-4 0
8.61362379083327E-4 0
-9.398328814707962E-4 0
1.5557102790375145E-3 0
4.838015143118363E-1 0
1.5471243794665515E-3 0
-9.489389227737393E-4 0
8.674015684405862E-4 0
2.7551189833300053E-4 0
4.263877134030615E-4 0
2.5819248731027886E-3 0
-1.955475402656154E-4 0
2.988415474131421E-3 0
-2.510456073559835E-4 0
1.7600274261453644E-3 0
3.6226624882072915E-3 0
-5.907743517728998E-3 0
-5.864513253562432E-3 0
3.5505840234366644E-3 0
1.7202863917037316E-3 0
-5.112556045010824E-4 0
2.8210976387327887E-3 0
-6.479346282389145E-4 0
2.8324977153617466E-3 0
1.9915193165983235E-4 0
3.4929587891588012E-3 0
-7.339654137933202E-3 0
1.5181231335103704E-3 0
-6.51151602430759E-3 0
9.563630638406214E-4 0
-6.622961349309733E-3 0
1.2864739810106247E-3 0
-7.700000344724101E-3 0
2.0848984307180484E-3 0
-7.530088132552934E-3 0
1.7102166894898973E-3 0
-3.367406994524924E-3 0
-1.7403833484934004E-3 0
1.0184652569692027E-2 0
1.9355001855968859E-3 0
5.209056405621488E-4 0
-1.8380801869643984E-3 0
-1.994824537200454E-3 0
4.0345878621015746E-4 0
1.5810646923071808E-3 0
9.63802731873604E-3 0
-1.6876695801946945E-3 0
-3.2109740207408284E-3 0
2.6733823095652595E-3 0
-7.575312231389229E-3 0
4.2386316345829374E-4 0
2.2042216559671666E-4 0
8.513709089238811E-4 0
-9.470148045451515E-4 0
1.5471243794665812E-3 0
4.83784309217064E-1 0
1.511582316681807E-3 0
-1.0140471375865731E-3 0
7.548512871948375E-4 0
1.120594779191892E-4 0
2.756546283360376E-4 0
2.6434644561973914E-3 0
-9.38404136030437E-5 0
2.905829885972494E-3 0
-2.7214821634481527E-4 0
1.8220259273804304E-3 0
3.749077801559211E-3 0
-5.7228882149157325E-3 0
-5.7489021570233615E-3 0
3.621242798316965E-3 0
1.7497541960108144E-3 0
-5.327038560632107E-4 0
2.8587434610748605E-3 0
-6.582672432968475E-4 0
2.7728688123588923E-3 0
-9.5794886067784E-3 0
2.5238063729318455E-3 0
-7.3991333484839175E-3 0
1.444141680895451E-3 0
-6.60884474880284E-3 0
8.228574920314653E-4 0
-6.806553520494414E-3 0
1.0436859673695403E-3 0
-8.022243187918842E-3 0
1.6909402599482135E-3 0
-8.102046989634694E-3 0
1.366562324563717E-3 0
-3.5675639246839394E-3 0
-1.7931615344356064E-3 0
9.955668283493414E-3 0
2.3599131365960478E-3 0
6.561447296657537E-4 0
-1.7262308575096432E-3 0
-2.02948494109433E-3 0
4.894478892000596E-4 0
1.4241445196603666E-3 0
9.849735185795207E-3 0
-1.967017566445028E-3 0
-2.9223840590216067E-3 0
2.3515883526252696E-3 0
3.383126998449712E-3 0
3.153245698428054E-4 0
2.2832203651291862E-4 0
8.623302450306635E-4 0
-9.48938922773749E-4 0
1.511582316681813E-3 0
4.83693991746865E-1 0
1.3517488970899354E-3 0
-1.2454334336844937E-3 0
5.032030167009576E-4 0
-6.493011475817467E-5 0
3.0015418372288615E-4 0
2.821824387541956E-3 0
-1.9003135676784068E-4 0
2.8524829074817663E-3 0
-2.2011503703709944E-5 0
2.0214110874706894E-3 0
3.891731209499788E-3 0
-5.618653547832175E-3 0
-5.72316996410375E-3 0
3.6455819958130012E-3 0
1.6998011688117225E-3 0
-5.622871151582295E-4 0
2.7857073302765497E-3 0
-5.123147225492178E-4 0
3.0291844095534873E-3 0
-7.059889331196787E-3 0
2.4457552840599266E-3 0
-7.4952568851192935E-3 0
1.3169807905877933E-3 0
-6.78479345108791E-3 0
5.84126015769764E-4 0
-7.111609486222712E-3 0
6.544470109286351E-4 0
-8.467181743283049E-3 0
1.170103159050982E-3 0
-8.169007907839625E-3 0
1.6256836253508867E-3 0
-3.5952204274337526E-3 0
-1.3269211729506208E-3 0
1.0222426737473237E-2 0
2.2727481412705554E-3 0
6.308572744091882E-4 0
-1.7425941995773799E-3 0
-2.091332621090533E-3 0
5.606223504611873E-4 0
1.223807381744085E-3 0
1.0123044798604892E-2 0
-2.30306318799902E-3 0
-2.970428758290092E-3 0
-5.329154898656238E-4 0
2.4949684100502227E-3 0
3.570796328793231E-4 0
2.6958526475165135E-4 0
8.674015684405924E-4 0
-1.0140471375865866E-3 0
1.3517488970899397E-3 0
4.8342706372351313E-1 0
9.898936163897382E-4 0
-1.6181354554159018E-3 0
2.2892199976071024E-4 0
-9.680308944290893E-5 0
3.5842473180296483E-4 0
2.8265859462751402E-3 0
7.492836247386884E-5 0
3.223537507504177E-3 0
2.3587821760866993E-4 0
2.189562119289964E-3 0
3.948025951494371E-3 0
-5.596197885366865E-3 0
-5.811661641088658E-3 0
3.652270209202619E-3 0
1.560166716037732E-3 0
-5.278700916799347E-4 0
2.727806079254945E-3 0
-4.2842980566180034E-3 0
2.1111466046170525E-3 0
-7.166420788252536E-3 0
2.3256971996104907E-3 0
-7.653786542977367E-3 0
1.0919985113560355E-3 0
-7.080420300279997E-3 0
2.4008924360353876E-4 0
-7.484502621040428E-3 0
3.1980748097346095E-4 0
-8.646317954397083E-3 0
1.3713659716878773E-3 0
-8.345049743677902E-3 0
1.7437173498940025E-3 0
-3.1188262900070456E-3 0
-1.2405682535992957E-3 0
1.0056559185982828E-2 0
2.151584460640309E-3 0
5.816532334826529E-4 0
-1.79376247503437E-3 0
-2.116092699690365E-3 0
5.698126821831623E-4 0
1.0685664683055978E-3 0
1.0261496688985176E-2 0
-2.1819549109837223E-3 0
3.5062427530131416E-3 0
-3.1253903943444597E-4 0
2.6079276109488825E-3 0
4.5562913570454904E-4 0
2.755118983330038E-4 0
7.54851287194847E-4 0
-1.245433433684498E-3 0
9.898936163897486E-4 0
4.829280977077463E-1 0
4.342424789093325E-4 0
-2.0852680636744138E-3 0
1.166258388695987E-4 0
-6.384246506149098E-6 0
4.532536303771925E-4 0
3.090215462112111E-3 0
6.401614865620241E-4 0
3.5927776816568405E-3 0
4.011647236490485E-4 0
2.191503009370189E-3 0
3.8715304556798343E-3 0
-5.653812959903325E-3 0
-6.0181861082545295E-3 0
3.6481024240873866E-3 0
1.3166283878191178E-3 0
-4.66349368805383E-4 0
-2.398195504604749E-3 0
-3.284115001904185E-3 0
1.977916171549353E-3 0
-7.282624957898899E-3 0
2.150817945139081E-3 0
-7.947230015579934E-3 0
7.172876375082972E-4 0
-7.450278910458448E-3 0
-7.486265954125495E-5 0
-7.689271239637726E-3 0
2.21230902727773E-4 0
-8.609460917676474E-3 0
1.5213168304119712E-3 0
-8.285315269176889E-3 0
1.9109941962789211E-3 0
-2.8780076964636005E-3 0
-1.2752318827513405E-3 0
1.001072967523753E-2 0
2.0710111271052167E-3 0
6.505583560296276E-4 0
-1.8824746498858028E-3 0
-2.0404970561240634E-3 0
4.1657592132904303E-4 0
1.4145230659570272E-3 0
1.0149664289845395E-2 0
-6.293898916105295E-4 0
2.674541517817773E-3 0
-1.0971681694273841E-4 0
2.755169608431609E-3 0
4.2638771340306283E-4 0
1.1205947791919103E-4 0
5.032030167009735E-4 0
-1.6181354554158929E-3 0
4.3424247890934447E-4 0
4.8223568849647125E-1 0
-1.7074174518585781E-4 0
-2.192660148618685E-3 0
3.056131769023446E-4 0
1.8859172687087235E-4 0
1.0434417845529452E-3 0
3.826997512854744E-3 0
9.765664560310058E-4 0
3.591323840251658E-3 0
2.4095137170445302E-4 0
2.0171161732139868E-3 0
3.7304547340529107E-3 0
-5.818565766604991E-3 0
-6.330709022044516E-3 0
3.658591647896488E-3 0
1.367822980648674E-3 0
1.2870191164023746E-2 0
-1.9615880330547198E-3 0
-3.3719479455887854E-3 0
1.964823049319945E-3 0
-7.429532802766125E-3 0
1.781257177187334E-3 0
-8.392088871692191E-3 0
3.633030393935631E-4 0
-7.706365913346451E-3 0
-2.50852846387129E-4 0
-7.74289394262975E-3 0
3.062585504321392E-4 0
-9.104735197342251E-3 0
1.393540478641735E-3 0
-7.750905345432696E-3 0
2.0701336396301943E-3 0
-2.7979465183526108E-3 0
-1.290516133044632E-3 0
1.0089645636078002E-2 0
2.0787567520450857E-3 0
7.093604446078047E-4 0
-2.0734313093935457E-3 0
-2.0079870050156157E-3 0
2.3630544823480693E-4 0
1.7797381862844628E-3 0
2.1231367837709677E-3 0
-2.7893630521316884E-4 0
3.0982847360868505E-3 0
6.477575204908096E-5 0
2.5819248731027912E-3 0
2.7565462833603437E-4 0
-6.49301147581923E-5 0
2.2892199976069587E-4 0
-2.085268063674428E-3 0
-1.7074174518588034E-4 0
4.814118381171128E-1 0
-4.775329052761422E-4 0
-2.0858258719062637E-3 0
4.016079384235446E-4 0
1.0893404582446443E-3 0
1.977329763203203E-3 0
3.829617701945818E-3 0
6.381694974610737E-4 0
3.2178951990140367E-3 0
2.418883597254119E-6 0
1.7682809879343109E-3 0
3.7017223541494005E-3 0
-6.189150519226774E-3 0
-6.532689129077083E-3 0
3.6114789868853655E-3 0
2.0579766598967032E-3 0
9.135949343502762E-3 0
-1.7011588168804443E-3 0
-3.1366141775901247E-3 0
1.838872174716536E-3 0
-8.016819204748811E-3 0
1.2122323243379802E-3 0
-8.62946231876882E-3 0
9.659593457160047E-5 0
-7.995850627050521E-3 0
-5.26118653341171E-4 0
-7.794985060872914E-3 0
2.1045586085497128E-4 0
-9.568258978011357E-3 0
1.3527648817670292E-3 0
-7.295984760451868E-3 0
2.3071377599174045E-3 0
-2.709084431371362E-3 0
-1.3415574185118297E-3 0
1.0309962604977418E-2 0
2.105331148204187E-3 0
5.762370045496914E-4 0
-2.311013974515982E-3 0
-2.2229297967471463E-3 0
2.92921418578962E-4 0
4.644108733367407E-3 0
1.6200521534991933E-3 0
-3.332791647642522E-5 0
2.962951736119953E-3 0
-1.9554754026561994E-4 0
2.643464456197387E-3 0
3.0015418372289797E-4 0
-9.68030894428929E-5 0
1.1662583886960945E-4 0
-2.192660148618662E-3 0
-4.775329052762014E-4 0
4.8166088526584216E-1 0
-1.0368605114294912E-4 0
-2.319824446463426E-3 0
9.006244405016854E-4 0
1.0938182560503312E-3 0
1.0322489878788928E-3 0
3.1082189040830322E-3 0
5.569121235576244E-5 0
2.857278124544992E-3 0
-2.272635813640978E-4 0
1.612672998002565E-3 0
3.7230529434475095E-3 0
-6.606706486769214E-3 0
-6.232880345741203E-3 0
2.276114303419314E-5 0
1.3866903289592163E-3 0
9.865444525888051E-3 0
-1.3916440065732806E-3 0
-3.2836413267491394E-3 0
1.44045791353309E-3 0
-8.198788126771321E-3 0
1.3098395149112809E-3 0
-8.884504667684492E-3 0
-2.2824770837548495E-4 0
-8.5853978420817E-3 0
-9.040575301151729E-4 0
-8.629420967633989E-3 0
-6.067182917983213E-4 0
-8.632756162676844E-3 0
2.139754162541591E-3 0
-7.20353169615845E-3 0
2.15451608681675E-3 0
-2.9922821713728362E-3 0
-1.4153924091557604E-3 0
1.0071916917332393E-2 0
1.5892961241638045E-3 0
3.8876114924774383E-4 0
-2.7958017653255665E-3 0
-2.1900850068367625E-3 0
-8.747641681906856E-3 0
3.5541524932483676E-3 0
1.7732291174695051E-3 0
-2.059725958521949E-4 0
2.988415474131421E-3 0
-9.384041360304054E-5 0
2.8218243875419587E-3 0
3.584247318029642E-4 0
-6.38424650614686E-6 0
3.0561317690234807E-4 0
-2.0858258719062637E-3 0
-1.0368605114294957E-4 0
4.7969039337575475E-1 0
-4.3954445328786253E-4 0
-2.3180028498416575E-3 0
3.9333666321561176E-4 0
2.0892741413035075E-4 0
4.159139901176835E-4 0
2.8833774236261167E-3 0
-2.630326982208151E-4 0
2.9755832371372365E-3 0
-2.731726551853577E-4 0
1.6815859542573608E-3 0
4.1167823468631175E-3 0
-6.924687894965474E-3 0
-3.4190108834871932E-3 0
7.904875104783797E-5 0
2.0506943392535407E-3 0
1.0395615392324618E-2 0
-1.7225670083046531E-3 0
-3.5306903949904383E-3 0
1.5885502097736054E-3 0
-8.407376266287113E-3 0
1.3376888297057857E-3 0
-9.42936968397196E-3 0
-4.894028078764477E-4 0
-9.157126388680959E-3 0
-1.2839705844049827E-3 0
-9.660292434131836E-3 0
-7.822499187708901E-5 0
-8.871977809875734E-3 0
1.7255012557671908E-3 0
-8.107939118173297E-3 0
1.794681320234681E-3 0
-3.497168326582919E-3 0
-1.984556193696734E-3 0
1.0446252293867631E-2 0
1.4447683095164263E-3 0
3.5337403584500426E-4 0
-2.6822741261345296E-3 0
-8.747641681906927E-3 0
-6.373810790914449E-3 0
3.7757428742411525E-3 0
1.8350632752746371E-3 0
-2.5104560735598493E-4 0
2.905829885972493E-3 0
-1.9003135676784187E-4 0
2.8265859462751385E-3 0
4.5325363037719183E-4 0
1.8859172687087455E-4 0
4.0160793842354575E-4 0
-2.319824446463421E-3 0
-4.39544453287864E-4 0
4.7969039337575475E-1 0
-1.0565251821445766E-4 0
-2.076896787310124E-3 0
2.831374622017125E-4 0
3.7446535264345034E-5 0
2.8340364409670517E-4 0
2.9401282811533595E-3 0
-2.674295163358757E-4 0
3.218209525405045E-3 0
-4.5463035717659616E-4 0
1.9578316462883216E-3 0
3.679207058758283E-3 0
-3.4190108834871347E-3 0
-2.410533920126034E-3 0
1.4200118281425212E-5 0
1.8225833698227035E-3 0
1.016683622950309E-2 0
-1.8300350641290123E-3 0
-3.558087011856512E-3 0
1.80604387250322E-3 0
-8.101687268470712E-3 0
1.718174965271441E-3 0
-8.868400309279961E-3 0
-7.901287075136645E-5 0
-9.660292434131839E-3 0
-1.283970584404969E-3 0
-9.160707504488642E-3 0
-4.731421308182883E-4 0
-9.467994165741789E-3 0
1.4019749842566198E-3 0
-8.485996977499579E-3 0
1.6473804834726761E-3 0
-3.503664332813499E-3 0
-1.9183969300754446E-3 0
1.0793523075553762E-2 0
1.6113373466110916E-3 0
2.8539674314208703E-4 0
4.642262371275989E-3 0
-6.097125539711353E-3 0
-6.217394752819765E-3 0
3.4122729177433306E-3 0
1.7600274261453663E-3 0
-2.721482163448145E-4 0
2.852482907481763E-3 0
7.49283624738695E-5 0
3.090215462112115E-3 0
1.0434417845529408E-3 0
1.0893404582446732E-3 0
9.006244405017105E-4 0
-2.31800284984166E-3 0
-1.0565251821445702E-4 0
4.816632009071286E-1 0
-4.8230962235704344E-4 0
-2.181639969602259E-3 0
9.325956016312629E-5 0
-5.0119898653362105E-5 0
2.126103918136417E-4 0
2.7969348323281366E-3 0
-4.3675590378856183E-4 0
3.2979450736528026E-3 0
-3.6908063767536714E-4 0
1.861158925999791E-3 0
1.4667574292321638E-5 0
-2.181704574172831E-3 0
-2.528921612910961E-3 0
8.079749184530779E-5 0
1.851734673876928E-3 0
9.88177262667737E-3 0
-1.2971410168148407E-3 0
-3.057298976096352E-3 0
2.1860390825667376E-3 0
-7.216398371759569E-3 0
2.1432002805141775E-3 0
-8.632694140184647E-3 0
-6.058882643928397E-4 0
-8.633044231972876E-3 0
-8.917163118292248E-4 0
-8.621906697548002E-3 0
-1.500816180031713E-4 0
-9.017626668994356E-3 0
1.5002512627579382E-3 0
-8.428826359112587E-3 0
1.6527766805023545E-3 0
-3.3723115239533766E-3 0
-1.6244076448497652E-3 0
1.039131341215486E-2 0
1.1538937893367026E-3 0
2.1315205108868346E-3 0
3.305683487142076E-3 0
-6.36976039002398E-3 0
-6.191627143672218E-3 0
3.6226624882072906E-3 0
1.8220259273804232E-3 0
-2.2011503703712546E-5 0
3.2235375075041774E-3 0
6.401614865620217E-4 0
3.826997512854741E-3 0
1.9773297632031963E-3 0
1.0938182560503223E-3 0
3.933366632156111E-4 0
-2.0768967873101255E-3 0
-4.823096223570208E-4 0
4.81407473910319E-1 0
-1.543470441472599E-4 0
-2.1128073738810997E-3 0
2.5780252896614347E-4 0
-7.407202310842914E-5 0
2.3037752548659457E-4 0
2.720326349732044E-3 0
-2.065559665773291E-4 0
3.429112134846394E-3 0
-4.61183018134175E-4 0
2.0947269116694035E-3 0
2.596784161869192E-4 0
-2.261222920285271E-3 0
-2.1740056651793037E-3 0
3.922494467376923E-4 0
2.2746856597794384E-3 0
1.0180297857322117E-2 0
-1.2574277811935764E-3 0
-2.753377887782769E-3 0
2.3230870780802174E-3 0
-7.296087459305312E-3 0
1.3490597574563749E-3 0
-9.57202786131893E-3 0
2.269079206249146E-4 0
-7.831189674924384E-3 0
-4.50398254380829E-4 0
-8.132456892800885E-3 0
3.15313132903137E-4 0
-8.949783425956464E-3 0
1.6461912861524494E-3 0
-8.554806517144116E-3 0
2.4233166321487834E-3 0
-3.5798940328083707E-3 0
-1.5605418092810497E-3 0
9.623524763296608E-3 0
-6.496581181277632E-4 0
1.49685111227061E-3 0
3.289494692658927E-3 0
-6.081619521791678E-3 0
-5.907743517728998E-3 0
3.7490778015592157E-3 0
2.0214110874706938E-3 0
2.3587821760867107E-4 0
3.5927776816568396E-3 0
9.765664560310067E-4 0
3.8296177019458105E-3 0
1.0322489878788882E-3 0
2.0892741413034796E-4 0
2.831374622017088E-4 0
-2.1816399696022574E-3 0
-1.543470441472253E-4 0
4.821792971260259E-1 0
5.37533885202343E-4 0
-1.7607220609239253E-3 0
6.605361969491891E-4 0
-1.647528781322698E-5 0
4.7233455298750993E-4 0
2.8513393141877488E-3 0
-3.0954285504858424E-4 0
2.9386669287715E-3 0
1.2776841767987301E-2 0
1.7176504357419137E-3 0
2.6542068983105696E-4 0
-2.0993203303721216E-3 0
-1.9386338300804852E-3 0
5.658270258106868E-4 0
2.1976545770139707E-3 0
1.0013073205219918E-2 0
-1.2581238056432152E-3 0
-2.797935826689199E-3 0
2.054441761544548E-3 0
-7.7373397333462945E-3 0
1.4013370311489347E-3 0
-9.143829941123522E-3 0
3.8372713430374076E-4 0
-7.879764141550089E-3 0
-3.6211879943962757E-5 0
-8.02074278537859E-3 0
8.076582253036627E-4 0
-9.001840279738767E-3 0
2.5932740150989087E-3 0
-8.447591176474287E-3 0
3.1140565379494545E-3 0
-4.364485354962133E-3 0
-1.6025732608500863E-3 0
3.5417730751212493E-3 0
-5.43042468187055E-4 0
1.5258757793829068E-3 0
3.420161104004701E-3 0
-5.864513253562434E-3 0
-5.72288821491573E-3 0
3.8917312094997945E-3 0
2.1895621192899698E-3 0
4.011647236490558E-4 0
3.5913238402516577E-3 0
6.381694974610673E-4 0
3.108218904083034E-3 0
4.159139901176842E-4 0
3.7446535264342934E-5 0
9.325956016312234E-5 0
-2.112807373881089E-3 0
5.375338852023383E-4 0
4.827313617034347E-1 0
1.2776047100205505E-3 0
-1.5987160815224704E-3 0
1.122558741698294E-3 0
-3.5571814141005435E-5 0
6.164162834440571E-4 0
2.620551642684451E-3 0
-3.826155482446438E-4 0
-2.2121111434452345E-3 0
9.406379616063129E-3 0
1.7028552366329776E-3 0
2.816752589064148E-4 0
-2.060746876735126E-3 0
-1.8012424424015848E-3 0
5.680178786746856E-4 0
2.1173431202904784E-3 0
1.0010701544100003E-2 0
-1.3076437243723649E-3 0
-2.8342382041825747E-3 0
1.8781617497146976E-3 0
-8.292429274002531E-3 0
1.5864651400858618E-3 0
-8.741271197320757E-3 0
4.4046175399550943E-4 0
-8.003601804523768E-3 0
3.481354379089673E-4 0
-8.013087857310336E-3 0
1.4647078803648465E-3 0
-8.939240865944588E-3 0
3.422653229081821E-3 0
-8.81263620117077E-3 0
3.4181904251330917E-3 0
-4.196243181745815E-3 0
-5.823021774291348E-4 0
2.598257676332831E-3 0
-5.32828594419361E-4 0
1.6387964048647453E-3 0
3.5505840234366596E-3 0
-5.748902157023368E-3 0
-5.618653547832181E-3 0
3.948025951494371E-3 0
2.191503009370194E-3 0
2.409513717044482E-4 0
3.217895199014029E-3 0
5.56912123557705E-5 0
2.8833774236261206E-3 0
2.8340364409670387E-4 0
-5.0119898653366815E-5 0
2.57802528966158E-4 0
-1.7607220609239488E-3 0
1.2776047100205778E-3 0
4.8298573850498394E-1 0
1.9283144609912898E-3 0
-1.673917490634352E-3 0
1.5228988743149368E-3 0
-2.56221367015366E-4 0
6.471536625750765E-4 0
2.5591658145667265E-3 0
-4.615021288967772E-3 0
-1.5281386836589325E-3 0
9.424060702254015E-3 0
1.6319442014558726E-3 0
3.5724845115052433E-4 0
-2.077800483642105E-3 0
-1.7737852133953937E-3 0
5.816810452878794E-4 0
2.105290712437495E-3 0
1.0133236134818653E-2 0
-1.3237797518470828E-3 0
-3.0517135705991016E-3 0
1.7336695896316026E-3 0
-8.424985246896494E-3 0
1.5596835253347452E-3 0
-8.967565012813967E-3 0
7.640773655721005E-4 0
-8.047385145632613E-3 0
9.456752175560359E-4 0
-7.97364223471487E-3 0
2.2439121390866183E-3 0
-9.118260512505624E-3 0
4.124448186647906E-3 0
-8.93182268907176E-3 0
3.1938893895454333E-3 0
3.437115534082759E-3 0
-4.5265816785720013E-4 0
2.663760423722918E-3 0
-5.094044742349105E-4 0
1.7202863917037327E-3 0
3.6212427983169644E-3 0
-5.7231699641037605E-3 0
-5.596197885366868E-3 0
3.871530455679839E-3 0
2.0171161732139803E-3 0
2.418883597252048E-6 0
2.857278124544999E-3 0
-2.6303269822081185E-4 0
2.9401282811533586E-3 0
2.1261039181363678E-4 0
-7.407202310842264E-5 0
6.605361969491923E-4 0
-1.5987160815224837E-3 0
1.9283144609913085E-3 0
4.828916275350268E-1 0
2.5025416691541584E-3 0
-2.02777249048516E-3 0
1.8547045104122053E-3 0
-4.529823441024986E-4 0
5.695283964444434E-4 0
3.5785313743460947E-3 0
-3.380795079498766E-3 0
-1.5179601553999263E-3 0
9.484681208803303E-3 0
1.5505554187606784E-3 0
4.6769357512981734E-4 0
-2.0913301028867466E-3 0
-1.7626143648192085E-3 0
7.13287816330511E-4 0
2.1536052904623094E-3 0
1.0350552266697096E-2 0
-1.4481592663898072E-3 0
-3.5360257787251308E-3 0
1.686237935614892E-3 0
-8.396059580752683E-3 0
1.6056019825744705E-3 0
-9.076689679156931E-3 0
1.4019799053286723E-3 0
-8.004792409481867E-3 0
1.6585025281835105E-3 0
-8.111443312200563E-3 0
2.954972790020028E-3 0
-9.48220776836728E-3 0
4.417006780656653E-3 0
-8.609959317719348E-3 0
3.878475016121649E-4 0
2.5792239467114318E-3 0
-4.854243135359368E-4 0
2.745559381544459E-3 0
-5.112556045010809E-4 0
1.7497541960108168E-3 0
3.6455819958129986E-3 0
-5.811661641088659E-3 0
-5.653812959903321E-3 0
3.7304547340529103E-3 0
1.768280987934311E-3 0
-2.2726358136409506E-4 0
2.975583237137236E-3 0
-2.6742951633587804E-4 0
2.7969348323281383E-3 0
2.3037752548659554E-4 0
-1.647528781322707E-5 0
1.1225587416982933E-3 0
-1.6739174906343437E-3 0
2.5025416691541666E-3 0
4.8245522353614095E-1 0
3.132139929815653E-3 0
-2.5471104198698394E-3 0
2.0470682489980613E-3 0
-2.2940468188584813E-4 0
-1.0447645756620669E-2 0
2.7534459526491937E-3 0
-3.385035382024573E-3 0
-1.5534902811634775E-3 0
9.62390786502032E-3 0
1.424132098655434E-3 0
5.823787094214986E-4 0
-2.067715437974618E-3 0
-1.8072251049576385E-3 0
8.002678787701401E-4 0
2.192990605618988E-3 0
1.0149496597383866E-2 0
-1.9458940845991837E-3 0
-3.5423264419110513E-3 0
1.5751969647789907E-3 0
-8.642465812584509E-3 0
2.5023661393586173E-3 0
-9.01448938763149E-3 0
2.1955325527779003E-3 0
-8.133194433624166E-3 0
2.388470513418806E-3 0
-8.471185599007941E-3 0
3.6517400719092196E-3 0
-9.599685314776967E-3 0
4.07613472608936E-3 0
2.9218111875311295E-4 0
2.473518268137511E-4 0
2.670854380481912E-3 0
-5.495399293636348E-4 0
2.8210976387327866E-3 0
-5.327038560632144E-4 0
1.699801168811726E-3 0
3.6522702092026188E-3 0
-6.018186108254529E-3 0
-5.81856576660499E-3 0
3.7017223541493957E-3 0
1.6126729980025648E-3 0
-2.731726551853617E-4 0
3.2182095254050472E-3 0
-4.367559037885612E-4 0
2.720326349732038E-3 0
4.723345529875173E-4 0
-3.557181414101479E-5 0
1.5228988743149435E-3 0
-2.0277724904851566E-3 0
3.132139929815656E-3 0
4.8169516789374567E-1 0
3.9305638585002845E-3 0
-2.878880363074273E-3 0
1.720537389817564E-3 0
4.759221831846029E-3 0
-7.763708459274216E-3 0
2.8665095246042374E-3 0
-3.3296175646835824E-3 0
-1.6876537878331163E-3 0
9.863878361674492E-3 0
1.254320168972266E-3 0
6.159162324202548E-4 0
-1.975061113051099E-3 0
-1.97412101576583E-3 0
7.014160731266237E-4 0
1.6695436106100843E-3 0
1.0463063165199458E-2 0
-1.935207801407275E-3 0
-3.4525589045287983E-3 0
2.298137082846872E-3 0
-8.546900327669697E-3 0
3.35721538175948E-3 0
-9.164361795570695E-3 0
2.924458728508711E-3 0
-8.485332390415278E-3 0
3.0930391055449384E-3 0
-8.970050113766823E-3 0
3.956629383959393E-3 0
-9.42556186426055E-3 0
1.3252002831753715E-3 0
2.9087119523968407E-4 0
1.8001973253630046E-4 0
2.7759580342569218E-3 0
-6.479346282389146E-4 0
2.8587434610748575E-3 0
-5.6228711515823E-4 0
1.5601667160377343E-3 0
3.648102424087385E-3 0
-6.330709022044515E-3 0
-6.189150519226779E-3 0
3.7230529434475086E-3 0
1.6815859542573658E-3 0
-4.546303571765958E-4 0
3.2979450736527944E-3 0
-2.0655596657733296E-4 0
2.8513393141877535E-3 0
6.164162834440512E-4 0
-2.56221367015362E-4 0
1.8547045104122034E-3 0
-2.547110419869822E-3 0
3.930563858500245E-3 0
4.806847007836176E-1 0
4.60064367877047E-3 0
-2.418229257260183E-3 0
-1.175813818384883E-2 0
3.7636289336955365E-3 0
-7.89430536902176E-3 0
2.9171161306325976E-3 0
-3.2023402374872878E-3 0
-1.9474792186523705E-3 0
1.015047895898672E-2 0
1.095253209150302E-3 0
4.3807901566989265E-4 0
-1.9607882051872706E-3 0
-2.1255560951931383E-3 0
6.72599060619163E-4 0
1.5891185678679805E-3 0
1.06491728172022E-2 0
-1.9082433540584447E-3 0
-3.7653619114328698E-3 0
3.0668818765625144E-3 0
-8.83418143319603E-3 0
4.097820415184789E-3 0
-9.509710696918488E-3 0
3.632268044060677E-3 0
-8.978732992554533E-3 0
3.7896350002972947E-3 0
-9.165106805553274E-3 0
3.6326815956301776E-3 0
-1.48141721531464E-3 0
9.092989620042351E-4 0
3.6549079347468E-4 0
1.1106929054924608E-4 0
2.8324977153617492E-3 0
-6.582672432968448E-4 0
2.7857073302765484E-3 0
-5.278700916799359E-4 0
1.3166283878191184E-3 0
3.6585916478964883E-3 0
-6.5326891290770905E-3 0
-6.606706486769209E-3 0
4.116782346863123E-3 0
1.9578316462883186E-3 0
-3.690806376753656E-4 0
3.42911213484639E-3 0
-3.095428550485755E-4 0
2.6205516426844417E-3 0
6.471536625750765E-4 0
-4.529823441024891E-4 0
2.0470682489980366E-3 0
-2.878880363074239E-3 0
4.600643678770444E-3 0
4.803217471021313E-1 0
3.538168334657656E-3 0
3.8679501342860304E-3 0
-8.481213597472394E-3 0
3.708461239115256E-3 0
-7.748189636892962E-3 0
2.6843433288481536E-3 0
-2.9046890486352835E-3 0
-2.285162280748959E-3 0
1.02634075021904E-2 0
1.3673351668539305E-3 0
1.3426537318222604E-4 0
-2.2903874880950068E-3 0
-2.5942287168763587E-3 0
5.703618219105956E-4 0
1.3943495605455076E-3 0
1.0189738921618065E-2 0
-1.493077569884568E-3 0
-4.26246125657806E-3 0
3.4654070606339703E-3 0
-8.933776162149638E-3 0
4.399160853525006E-3 0
-9.617443572095005E-3 0
3.945734077833453E-3 0
-9.169442531146904E-3 0
3.739574687781277E-3 0
-8.678737956522948E-3 0
2.4449740315323344E-3 0
-9.750874736878794E-4 0
9.003061955709271E-4 0
3.6108633249413687E-4 0
1.9915193165982942E-4 0
2.7728688123588923E-3 0
-5.123147225492158E-4 0
2.727806079254944E-3 0
-4.6634936880538355E-4 0
1.367822980648673E-3 0
3.6114789868853642E-3 0
-6.2328803457412036E-3 0
-6.924687894965474E-3 0
3.679207058758278E-3 0
1.86115892599979E-3 0
-4.6118301813416777E-4 0
2.9386669287714906E-3 0
-3.826155482446357E-4 0
2.5591658145667296E-3 0
5.695283964444326E-4 0
-2.2940468188583255E-4 0
1.7205373898175676E-3 0
-2.4182292572601702E-3 0
3.538168334657629E-3 0
4.810200019738358E-1 0
-9.982168508764775E-3 0
2.2703072824844526E-3 0
-8.190635833737976E-3 0
3.1728434317770107E-3 0
-7.567916473648335E-3 0
2.362112278563455E-3 0
-2.9622574649063897E-3 0
-2.1901264735599496E-3 0
1.0083722803102189E-2 0
1.6163160769077684E-3 0
-9.779505808318656E-5 0
-2.4777376553711335E-3 0
-2.6942253053163084E-3 0
2.973479223238539E-4 0
1.4415384031392525E-3 0
1.0014277723051277E-2 0
-1.4392395825849993E-3 0
-4.130145524649727E-3 0
3.2018370016460946E-3 0
-8.617857132986543E-3 0
4.0653203769333455E-3 0
-9.432688879705772E-3 0
3.6287189321003222E-3 0
-8.679659228410654E-3 0
2.4461459293604144E-3 0
2.2048035641672134E-3 0
-8.745111718207285E-3 0
2.1916172488298646E-3 0
-1.0068488849334688E-2 0
3.492958789158803E-3 0
-9.579488606778402E-3 0
3.0291844095534926E-3 0
-4.284298056618007E-3 0
-2.3981955046047465E-3 0
1.2870191164023747E-2 0
2.0579766598967045E-3 0
2.2761143034190623E-5 0
-3.419010883487192E-3 0
-3.419010883487138E-3 0
1.4667574292322192E-5 0
2.094726911669399E-3 0
1.2776841767987306E-2 0
-2.2121111434452306E-3 0
-4.615021288967772E-3 0
3.578531374346105E-3 0
-1.0447645756620673E-2 0
4.759221831846023E-3 0
-1.1758138183848828E-2 0
3.867950134286032E-3 0
-9.982168508764764E-3 0
6.875996640234571E-1 0
-3.662259045919068E-2 0
1.1025580004204364E-2 0
-8.148914372208363E-3 0
-2.3539824249522821E-4 0
1.149161134493167E-3 0
-2.040590648362187E-2 0
1.0095113713705675E-2 0
-2.2176224917111853E-2 0
9.479138307318072E-3 0
-8.565545229188754E-3 0
-3.3915735547240596E-2 0
4.872237040552286E-2 0
4.87223704055229E-2 0
-3.390217939011266E-2 0
-8.62709931038752E-3 0
9.627364058808721E-3 0
-2.2433148125855853E-2 0
1.0441969107236758E-2 0
-2.075530882766621E-2 0
1.2891873323580309E-3 0
1.685406360323873E-4 0
-9.718834620849456E-3 0
1.3500990230438627E-2 0
-3.996360351156963E-2 0
-8.745111718206239E-3 0
1.1244386580570385E-3 0
-6.4064949703213445E-3 0
1.5683207091945494E-3 0
-7.3396541379331945E-3 0
2.523806372931859E-3 0
-7.059889331196792E-3 0
2.1111466046170534E-3 0
-3.284115001904186E-3 0
-1.961588033054723E-3 0
9.13594934350276E-3 0
1.3866903289592098E-3 0
7.904875104783667E-5 0
-2.4105339201260364E-3 0
-2.1817045741728317E-3 0
2.596784161869176E-4 0
1.717650435741917E-3 0
9.406379616063129E-3 0
-1.5281386836589286E-3 0
-3.3807950794987715E-3 0
2.7534459526491924E-3 0
-7.763708459274218E-3 0
3.7636289336955417E-3 0
-8.48121359747239E-3 0
2.270307282484454E-3 0
-3.66225904591907E-2 0
6.000983292107953E-1 0
-2.6611156334456074E-2 0
7.98638986052149E-3 0
-5.8746399836211525E-3 0
-1.5595402188459817E-4 0
8.079943045282301E-4 0
-1.4979827095086938E-2 0
7.103701345344964E-3 0
-1.647149462885545E-2 0
6.48718445798357E-3 0
-6.442393772910114E-3 0
-2.6145164209158953E-2 0
3.5734302911274225E-2 0
3.38090701001915E-2 0
-2.482650671709589E-2 0
-6.303419862752574E-3 0
7.304371725060652E-3 0
-1.6546092660966082E-2 0
7.895842038459323E-3 0
-1.56663669460619E-2 0
1.4096627805056643E-3 0
-5.95739614546056E-4 0
-6.150813721632114E-3 0
8.52164663491855E-3 0
2.191617248828353E-3 0
-6.407539903547499E-3 0
1.0869126209446535E-3 0
-6.450737880978167E-3 0
1.5181231335103663E-3 0
-7.399133348483907E-3 0
2.4457552840599266E-3 0
-7.166420788252538E-3 0
1.977916171549356E-3 0
-3.371947945588789E-3 0
-1.701158816880446E-3 0
9.86544452588804E-3 0
2.050694339253543E-3 0
1.4200118281426699E-5 0
-2.52892161291096E-3 0
-2.2612229202852705E-3 0
2.6542068983105354E-4 0
1.7028552366329813E-3 0
9.424060702254017E-3 0
-1.5179601553999232E-3 0
-3.3850353820245754E-3 0
2.8665095246042413E-3 0
-7.89430536902176E-3 0
3.708461239115252E-3 0
-8.190635833737974E-3 0
1.1025580004204375E-2 0
-2.6611156334456126E-2 0
6.001625009071891E-1 0
-2.6534507866832265E-2 0
8.059913584697896E-3 0
-5.832050389982139E-3 0
-1.9031643785525116E-4 0
6.345621116876613E-4 0
-1.5435156126298763E-2 0
6.2564039810785975E-3 0
-1.8496436672046042E-2 0
4.864133585209767E-3 0
-7.406367263256559E-3 0
-2.7073889287702317E-2 0
3.4541910914610355E-2 0
3.5028169413620934E-2 0
-2.4487610119033297E-2 0
-6.345681831665575E-3 0
7.423019505758759E-3 0
-1.6946055288022926E-2 0
8.234962212565778E-3 0
-1.633168078236639E-2 0
1.9838252922608174E-3 0
-1.1739557220205416E-3 0
-6.016310975689179E-3 0
-1.0068488849333318E-2 0
1.5647234682792696E-3 0
-6.454934129533587E-3 0
1.0335381982941412E-3 0
-6.511516024307611E-3 0
1.444141680895478E-3 0
-7.495256885119309E-3 0
2.3256971996104972E-3 0
-7.282624957898897E-3 0
1.9648230493199393E-3 0
-3.136614177590124E-3 0
-1.3916440065732784E-3 0
1.0395615392324614E-2 0
1.8225833698227085E-3 0
8.079749184530269E-5 0
-2.174005665179312E-3 0
-2.0993203303721216E-3 0
2.816752589064175E-4 0
1.631944201455875E-3 0
9.4846812088033E-3 0
-1.5534902811634747E-3 0
-3.3296175646835733E-3 0
2.9171161306325963E-3 0
-7.748189636892964E-3 0
3.1728434317770025E-3 0
-8.148914372208379E-3 0
7.986389860521487E-3 0
-2.653450786683227E-2 0
6.002469603874478E-1 0
-2.6458320576716866E-2 0
8.099592530730247E-3 0
-5.8769684157716235E-3 0
-3.818704093472382E-4 0
1.5911572093908237E-4 0
-1.6194151953325776E-2 0
5.389701233559891E-3 0
-1.786591005484492E-2 0
6.060258261197377E-3 0
-7.542999806155377E-3 0
-2.5067102092697184E-2 0
3.430818788512464E-2 0
3.385403243382732E-2 0
-2.4867281908242365E-2 0
-6.825152181627305E-3 0
7.423008257817907E-3 0
-1.7489311889552935E-2 0
8.77409489523415E-3 0
-1.7131377293032882E-2 0
2.5296996726426645E-3 0
-1.0668694277826609E-3 0
3.4929587891578476E-3 0
-7.346751438816553E-3 0
1.5073048060512317E-3 0
-6.520223681231986E-3 0
9.563630638406774E-4 0
-6.608844748802822E-3 0
1.3169807905877744E-3 0
-7.653786542977355E-3 0
2.150817945139077E-3 0
-7.429532802766117E-3 0
1.8388721747165256E-3 0
-3.283641326749138E-3 0
-1.7225670083046546E-3 0
1.0166836229503094E-2 0
1.851734673876931E-3 0
3.922494467376911E-4 0
-1.9386338300804871E-3 0
-2.0607468767351264E-3 0
3.5724845115052347E-4 0
1.5505554187606788E-3 0
9.623907865020322E-3 0
-1.6876537878331116E-3 0
-3.202340237487284E-3 0
2.684343328848148E-3 0
-7.56791647364833E-3 0
-2.3539824249521992E-4 0
-5.874639983621128E-3 0
8.059913584697882E-3 0
-2.645832057671686E-2 0
6.003183467503745E-1 0
-2.6405673212431976E-2 0
8.110217119614491E-3 0
-5.927784463080372E-3 0
-4.893556834559279E-4 0
1.6746356403800098E-4 0
-1.5473630570063047E-2 0
6.5694430053476645E-3 0
-1.8213777006590774E-2 0
6.239860063552893E-3 0
-7.202269678822573E-3 0
-2.577739769859839E-2 0
3.325890580209086E-2 0
3.29329915760753E-2 0
-2.543472865023238E-2 0
-7.253278236293214E-3 0
7.521204885081477E-3 0
-1.8034983167392687E-2 0
9.511868401879535E-3 0
-1.754156268095078E-2 0
1.941845729018211E-3 0
-9.579488606777863E-3 0
2.5137237792301156E-3 0
-7.416653404380611E-3 0
1.4245091473512397E-3 0
-6.622961349309734E-3 0
8.228574920314926E-4 0
-6.784793451087918E-3 0
1.091998511356043E-3 0
-7.94723001557994E-3 0
1.7812571771873475E-3 0
-8.016819204748829E-3 0
1.4404579135330942E-3 0
-3.5306903949904457E-3 0
-1.830035064129007E-3 0
9.881772626677377E-3 0
2.2746856597794488E-3 0
5.658270258106878E-4 0
-1.801242442401586E-3 0
-2.077800483642113E-3 0
4.6769357512982477E-4 0
1.4241320986554378E-3 0
9.863878361674487E-3 0
-1.9474792186523703E-3 0
-2.9046890486352814E-3 0
2.362112278563463E-3 0
1.149161134493173E-3 0
-1.559540218846312E-4 0
-5.8320503899821135E-3 0
8.09959253073025E-3 0
-2.640567321243202E-2 0
6.004060748733278E-1 0
-2.6257286217836483E-2 0
8.350615429757449E-3 0
-5.528609085051981E-3 0
1.40207327711554E-4 0
7.376871243571551E-4 0
-1.5548522794570429E-2 0
6.645949900298514E-3 0
-1.813108300329302E-2 0
6.051727803311138E-3 0
-7.196351577454909E-3 0
-2.6258515230413067E-2 0
3.239551926836549E-2 0
3.237630199382532E-2 0
-2.580100154848882E-2 0
-7.421914790550433E-3 0
7.688823123364874E-3 0
-1.836530012960164E-2 0
9.578860153811477E-3 0
-1.6940469073599813E-2 0
3.0291844095532306E-3 0
-7.067697179945553E-3 0
2.4279480228616606E-3 0
-7.522732530413365E-3 0
1.286473981010614E-3 0
-6.806553520494414E-3 0
5.84126015769779E-4 0
-7.08042030028001E-3 0
7.172876375083106E-4 0
-8.392088871692191E-3 0
1.2122323243379807E-3 0
-8.198788126771332E-3 0
1.5885502097736002E-3 0
-3.558087011856514E-3 0
-1.2971410168148348E-3 0
1.0180297857322116E-2 0
2.1976545770139707E-3 0
5.680178786746811E-4 0
-1.773785213395396E-3 0
-2.091330102886747E-3 0
5.823787094214979E-4 0
1.2543201689722663E-3 0
1.0150478958986714E-2 0
-2.2851622807489543E-3 0
-2.96225746490639E-3 0
-2.0405906483621887E-2 0
8.079943045282623E-4 0
-1.9031643785527282E-4 0
-5.8769684157716304E-3 0
8.11021711961452E-3 0
-2.6257286217836448E-2 0
6.007679506361446E-1 0
-2.5632833164310573E-2 0
9.245839768183531E-3 0
-4.50666447537891E-3 0
1.059582513579949E-3 0
1.1787993488923349E-3 0
-1.6358197767873638E-2 0
6.598796733686066E-3 0
-1.7718678115675894E-2 0
5.029395018894644E-3 0
-8.154427322796044E-3 0
-2.6912486042799628E-2 0
3.184047498634517E-2 0
3.228640894270408E-2 0
-2.5987098205516153E-2 0
-7.089529012657832E-3 0
7.812932350614855E-3 0
-1.7872478390425266E-2 0
8.592524014089104E-3 0
-4.284298056617951E-3 0
2.1190276328889907E-3 0
-7.16859421207413E-3 0
2.2992141506905373E-3 0
-7.70000034472409E-3 0
1.0436859673695394E-3 0
-7.111609486222731E-3 0
2.4008924360354285E-4 0
-7.450278910458455E-3 0
3.63303039393559E-4 0
-8.629462318768825E-3 0
1.3098395149112787E-3 0
-8.407376266287112E-3 0
1.8060438725032203E-3 0
-3.0572989760963517E-3 0
-1.2574277811935796E-3 0
1.0013073205219918E-2 0
2.117343120290473E-3 0
5.816810452878827E-4 0
-1.7626143648191987E-3 0
-2.0677154379746166E-3 0
6.159162324202514E-4 0
1.0952532091503021E-3 0
1.0263407502190396E-2 0
-2.190126473559943E-3 0
1.0095113713705672E-2 0
-1.4979827095086953E-2 0
6.345621116876647E-4 0
-3.8187040934722536E-4 0
-5.927784463080385E-3 0
8.350615429757426E-3 0
-2.563283316431058E-2 0
6.018176241168275E-1 0
-2.420560522677328E-2 0
1.075307514352216E-2 0
-3.3382102705911093E-3 0
1.235899282044703E-3 0
8.182764817780226E-4 0
-1.67791937686669E-2 0
5.306935001022929E-3 0
-1.8878135000727787E-2 0
4.10220757723281E-3 0
-8.900822811145981E-3 0
-2.716881404280771E-2 0
3.1676276449475904E-2 0
3.284097875945569E-2 0
-2.6199688832330238E-2 0
-6.203099260708981E-3 0
7.329121279322355E-3 0
-1.7323071076396485E-2 0
-2.398195504604686E-3 0
-3.2209428795649023E-3 0
2.0238521160374904E-3 0
-7.303169391621233E-3 0
2.0848984307180406E-3 0
-8.022243187918854E-3 0
6.544470109286495E-4 0
-7.484502621040426E-3 0
-7.486265954127198E-5 0
-7.706365913346439E-3 0
9.659593457158992E-5 0
-8.884504667684477E-3 0
1.3376888297057955E-3 0
-8.101687268470716E-3 0
2.1860390825667337E-3 0
-2.7533778877827696E-3 0
-1.2581238056432115E-3 0
1.0010701544100001E-2 0
2.105290712437494E-3 0
7.132878163305107E-4 0
-1.8072251049576385E-3 0
-1.9750611130511016E-3 0
4.380790156698919E-4 0
1.3673351668539312E-3 0
1.0083722803102189E-2 0
-2.217622491711184E-2 0
7.103701345344964E-3 0
-1.543515612629877E-2 0
1.591157209390691E-4 0
-4.893556834559253E-4 0
-5.528609085051958E-3 0
9.245839768183545E-3 0
-2.420560522677323E-2 0
6.038129002211651E-1 0
-2.192847965332064E-2 0
1.2747120905422769E-2 0
-2.740395992581947E-3 0
8.833484989728859E-4 0
2.533646238992668E-4 0
-1.757460563888263E-2 0
3.081662937247252E-3 0
-2.0394381551011767E-2 0
3.3994632503137456E-3 0
-8.916802142448402E-3 0
-2.676594754528475E-2 0
3.189914250297528E-2 0
3.403698286600056E-2 0
-2.654755048472756E-2 0
-4.732672436322714E-3 0
6.858077913207238E-3 0
1.2870191164023588E-2 0
-1.8053719445895453E-3 0
-3.2724752181948332E-3 0
1.9198400035328204E-3 0
-7.530088132552924E-3 0
1.6909402599482215E-3 0
-8.467181743283059E-3 0
3.1980748097345656E-4 0
-7.689271239637718E-3 0
-2.50852846387135E-4 0
-7.995850627050514E-3 0
-2.2824770837550376E-4 0
-9.429369683971959E-3 0
1.7181749652714442E-3 0
-7.216398371759567E-3 0
2.3230870780802083E-3 0
-2.797935826689207E-3 0
-1.3076437243723638E-3 0
1.0133236134818655E-2 0
2.153605290462313E-3 0
8.002678787701427E-4 0
-1.974121015765839E-3 0
-1.9607882051872793E-3 0
1.342653731822291E-4 0
1.616316076907775E-3 0
9.479138307318063E-3 0
-1.6471494628855447E-2 0
6.256403981078592E-3 0
-1.6194151953325762E-2 0
1.6746356403799116E-4 0
1.402073277115458E-4 0
-4.506664475378897E-3 0
1.0753075143522152E-2 0
-2.1928479653320655E-2 0
6.067994062122523E-1 0
-1.9397654499036632E-2 0
1.3066169154968103E-2 0
-3.815008079649548E-3 0
-7.624594860802693E-5 0
-2.1603448429426755E-3 0
-2.0523811571992744E-2 0
1.6089302516325162E-3 0
-2.0387955311789423E-2 0
4.072780761558702E-3 0
-8.130412457570128E-3 0
-2.6127116366477333E-2 0
3.26499847767129E-2 0
3.557108760993079E-2 0
-2.7060142125938356E-2 0
-5.166046822540938E-3 0
2.0579766598968975E-3 0
9.505870760517843E-3 0
-1.633808355532534E-3 0
-3.319219631671861E-3 0
1.7102166894898934E-3 0
-8.102046989634702E-3 0
1.1701031590509894E-3 0
-8.646317954397076E-3 0
2.212309027277624E-4 0
-7.742893942629739E-3 0
-5.261186533411686E-4 0
-8.585397842081684E-3 0
-4.894028078764518E-4 0
-8.868400309279954E-3 0
2.143200280514208E-3 0
-7.296087459305317E-3 0
2.054441761544542E-3 0
-2.834238204182569E-3 0
-1.3237797518470852E-3 0
1.0350552266697103E-2 0
2.1929906056189826E-3 0
7.014160731266201E-4 0
-2.125556095193129E-3 0
-2.2903874880950037E-3 0
-9.779505808319587E-5 0
-8.565545229188766E-3 0
6.487184457983582E-3 0
-1.849643667204603E-2 0
5.389701233559886E-3 0
-1.547363057006305E-2 0
7.376871243571704E-4 0
1.0595825135799293E-3 0
-3.3382102705911184E-3 0
1.2747120905422765E-2 0
-1.939765449903664E-2 0
6.10712482501984E-1 0
-1.7684484450510875E-2 0
1.2654833720394765E-2 0
-3.968326152371726E-3 0
-4.317589629371895E-3 0
-6.732917035232576E-3 0
-2.0548062763522345E-2 0
3.107852258863247E-3 0
-1.8857266020842457E-2 0
4.882458952793522E-3 0
-6.846115816616911E-3 0
-2.6313158354048138E-2 0
3.435945616953273E-2 0
3.598025264177251E-2 0
-2.6939862633035414E-2 0
2.2761143033995158E-5 0
1.6542404298992574E-3 0
9.671934691097709E-3 0
-1.6766463313810064E-3 0
-3.3674069945249263E-3 0
1.3665623245637183E-3 0
-8.169007907839634E-3 0
1.3713659716878767E-3 0
-8.609460917676464E-3 0
3.0625855043212724E-4 0
-7.794985060872893E-3 0
-9.040575301151439E-4 0
-9.157126388680957E-3 0
-7.901287075136094E-5 0
-8.632694140184624E-3 0
1.3490597574563885E-3 0
-7.73733973334629E-3 0
1.8781617497146965E-3 0
-3.0517135705991107E-3 0
-1.4481592663898085E-3 0
1.014949659738387E-2 0
1.6695436106100804E-3 0
6.725990606191564E-4 0
-2.594228716876352E-3 0
-2.477737655371134E-3 0
-3.3915735547240596E-2 0
-6.442393772910132E-3 0
4.864133585209766E-3 0
-1.786591005484492E-2 0
6.569443005347673E-3 0
-1.554852279457045E-2 0
1.1787993488923296E-3 0
1.235899282044696E-3 0
-2.740395992581934E-3 0
1.3066169154968122E-2 0
-1.768448445051093E-2 0
6.095993643498429E-1 0
-2.0782932370505564E-2 0
1.4276297630683162E-2 0
-6.575761043037661E-3 0
-4.352834081948729E-3 0
-2.0711442640508767E-3 0
-1.7720671179774362E-2 0
5.472131244468911E-3 0
-1.7793800477598775E-2 0
5.794224583029093E-3 0
-6.254422270557428E-3 0
-2.708774013732213E-2 0
3.70550780299589E-2 0
3.4393629202826E-2 0
-3.4190108834871447E-3 0
8.628471697007961E-5 0
1.840620263613743E-3 0
1.0248620603010596E-2 0
-1.740383348493396E-3 0
-3.5675639246839455E-3 0
1.62568362535089E-3 0
-8.34504974367791E-3 0
1.5213168304119725E-3 0
-9.104735197342246E-3 0
2.1045586085496456E-4 0
-8.629420967633986E-3 0
-1.2839705844049705E-3 0
-9.660292434131836E-3 0
-6.058882643928386E-4 0
-9.572027861318924E-3 0
1.4013370311489327E-3 0
-8.292429274002531E-3 0
1.7336695896316033E-3 0
-3.536025778725137E-3 0
-1.94589408459918E-3 0
1.0463063165199463E-2 0
1.5891185678679818E-3 0
5.703618219105972E-4 0
-2.6942253053163032E-3 0
4.872237040552284E-2 0
-2.6145164209158953E-2 0
-7.406367263256576E-3 0
6.0602582611973856E-3 0
-1.8213777006590787E-2 0
6.645949900298521E-3 0
-1.635819776787364E-2 0
8.182764817780215E-4 0
8.833484989728793E-4 0
-3.8150080796495486E-3 0
1.2654833720394758E-2 0
-2.0782932370505568E-2 0
6.213155405988666E-1 0
-2.0177509526171464E-2 0
1.4262307591245397E-2 0
-3.904801953338437E-3 0
-2.324215541851327E-4 0
5.401067000162277E-4 0
-1.7215522876189434E-2 0
7.161111604917552E-3 0
-1.8677891747251773E-2 0
6.450698754360668E-3 0
-6.549582798840777E-3 0
-2.9338256746878805E-2 0
3.903846214911508E-2 0
-3.419010883486951E-3 0
-2.4177698860485277E-3 0
2.2427419392159268E-4 0
1.969578159136417E-3 0
1.0184652569692029E-2 0
-1.7931615344356046E-3 0
-3.595220427433759E-3 0
1.743717349894002E-3 0
-8.285315269176885E-3 0
1.393540478641735E-3 0
-9.568258978011352E-3 0
-6.067182917983186E-4 0
-9.660292434131829E-3 0
-1.2839705844049705E-3 0
-8.63304423197287E-3 0
2.2690792062490868E-4 0
-9.143829941123517E-3 0
1.5864651400858618E-3 0
-8.424985246896492E-3 0
1.686237935614891E-3 0
-3.5423264419110487E-3 0
-1.935207801407276E-3 0
1.0649172817202193E-2 0
1.394349560545506E-3 0
2.9734792232384853E-4 0
4.872237040552289E-2 0
3.5734302911274225E-2 0
-2.7073889287702314E-2 0
-7.542999806155395E-3 0
6.239860063552888E-3 0
-1.8131083003293032E-2 0
6.598796733686067E-3 0
-1.677919376866689E-2 0
2.533646238992664E-4 0
-7.624594860803191E-5 0
-3.968326152371722E-3 0
1.4276297630683164E-2 0
-2.0177509526171457E-2 0
6.213155405988666E-1 0
-2.0768111532819405E-2 0
1.2587537137908038E-2 0
-3.6456698339961467E-3 0
5.533850581585114E-4 0
1.3818532440544908E-3 0
-1.7243006098032622E-2 0
7.931190215211768E-3 0
-1.98845335316881E-2 0
7.775116298897012E-3 0
-8.554828068530883E-3 0
-2.7186852321060714E-2 0
1.4667574292176242E-5 0
-2.4492470871676506E-3 0
-2.3354102991240623E-3 0
3.6579764137867864E-4 0
1.9355001855968844E-3 0
9.955668283493412E-3 0
-1.326921172950617E-3 0
-3.118826290007043E-3 0
1.9109941962789207E-3 0
-7.750905345432694E-3 0
1.3527648817670509E-3 0
-8.63275616267681E-3 0
-7.822499187709064E-5 0
-9.160707504488637E-3 0
-8.917163118291923E-4 0
-7.831189674924383E-3 0
3.83727134303746E-4 0
-8.741271197320759E-3 0
1.5596835253347493E-3 0
-8.396059580752686E-3 0
1.5751969647789911E-3 0
-3.4525589045288E-3 0
-1.9082433540584401E-3 0
1.0189738921618063E-2 0
1.441538403139253E-3 0
-3.3902179390112655E-2 0
3.38090701001915E-2 0
3.454191091461036E-2 0
-2.5067102092697174E-2 0
-7.202269678822561E-3 0
6.051727803311147E-3 0
-1.7718678115675898E-2 0
5.306935001022923E-3 0
-1.757460563888261E-2 0
-2.1603448429426838E-3 0
-4.317589629371891E-3 0
-6.575761043037649E-3 0
1.4262307591245395E-2 0
-2.076811153281941E-2 0
6.095825330456387E-1 0
-1.765064164517824E-2 0
1.2987851461172628E-2 0
-2.571571068760144E-3 0
8.92565419551954E-4 0
1.8316173551129096E-3 0
-1.670245860631435E-2 0
8.389259661197461E-3 0
-2.0385429201039487E-2 0
7.373748570727008E-3 0
-7.932760016219056E-3 0
2.0947269116693393E-3 0
-1.1027745520780782E-4 0
-2.3285800972746053E-3 0
-1.9913903338862316E-3 0
5.209056405621466E-4 0
2.3599131365960478E-3 0
1.0222426737473233E-2 0
-1.2405682535993002E-3 0
-2.8780076964635987E-3 0
2.0701336396301904E-3 0
-7.295984760451868E-3 0
2.1397541625416054E-3 0
-8.871977809875727E-3 0
-4.731421308182899E-4 0
-8.621906697547976E-3 0
-4.503982543808017E-4 0
-7.879764141550113E-3 0
4.4046175399551496E-4 0
-8.967565012813976E-3 0
1.605601982574475E-3 0
-8.64246581258451E-3 0
2.2981370828468774E-3 0
-3.7653619114328654E-3 0
-1.49307756988457E-3 0
1.001427772305127E-2 0
-8.627099310387526E-3 0
-2.4826506717095898E-2 0
3.5028169413620934E-2 0
3.430818788512464E-2 0
-2.5777397698598378E-2 0
-7.196351577454906E-3 0
5.029395018894652E-3 0
-1.8878135000727787E-2 0
3.081662937247235E-3 0
-2.052381157199272E-2 0
-6.732917035232555E-3 0
-4.352834081948721E-3 0
-3.9048019533384328E-3 0
1.2587537137908044E-2 0
-1.7650641645178267E-2 0
6.107521672764539E-1 0
-1.9535760156665822E-2 0
1.2976981148098837E-2 0
-3.583162257033072E-3 0
1.1534942257080574E-3 0
1.0673485218591254E-3 0
-1.6530654514506204E-2 0
7.475224713335793E-3 0
-2.103403399337441E-2 0
8.115631707571491E-3 0
1.2776841767987438E-2 0
1.5615178615866069E-3 0
1.6596434607388656E-4 0
-2.0543611320275983E-3 0
-1.8380801869643958E-3 0
6.561447296657578E-4 0
2.2727481412705523E-3 0
1.0056559185982833E-2 0
-1.2752318827513338E-3 0
-2.7979465183526186E-3 0
2.3071377599173984E-3 0
-7.2035316961584425E-3 0
1.7255012557671919E-3 0
-9.467994165741782E-3 0
-1.5008161800318193E-4 0
-8.132456892800859E-3 0
-3.6211879943962845E-5 0
-8.0036018045238E-3 0
7.640773655721007E-4 0
-9.07668967915694E-3 0
2.5023661393586204E-3 0
-8.546900327669697E-3 0
3.0668818765625097E-3 0
-4.262461256578045E-3 0
-1.4392395825849921E-3 0
9.627364058808712E-3 0
-6.303419862752574E-3 0
-2.44876101190333E-2 0
3.385403243382732E-2 0
3.325890580209085E-2 0
-2.6258515230413053E-2 0
-8.154427322796042E-3 0
4.1022075772328154E-3 0
-2.0394381551011736E-2 0
1.6089302516325292E-3 0
-2.054806276352234E-2 0
-2.0711442640508645E-3 0
-2.3242155418513164E-4 0
-3.645669833996149E-3 0
1.2987851461172624E-2 0
-1.9535760156665822E-2 0
6.072559372809623E-1 0
-2.275706234051682E-2 0
1.1895240045019085E-2 0
-5.770124234555582E-3 0
1.1835177652296522E-3 0
-2.3120908994136597E-4 0
-1.6917830509820438E-2 0
7.811319347815997E-3 0
-1.8291972199793668E-2 0
-2.2121111434453373E-3 0
9.343060003610747E-3 0
1.656889833351357E-3 0
3.0226134093657797E-4 0
-1.9948245372004548E-3 0
-1.726230857509647E-3 0
6.308572744091928E-4 0
2.1515844606403156E-3 0
1.0010729675237537E-2 0
-1.2905161330446333E-3 0
-2.7090844313713627E-3 0
2.15451608681674E-3 0
-8.107939118173297E-3 0
1.4019749842566237E-3 0
-9.01762666899436E-3 0
3.153131329031441E-4 0
-8.0207427853786E-3 0
3.481354379089627E-4 0
-8.047385145632632E-3 0
1.4019799053286782E-3 0
-9.014489387631492E-3 0
3.3572153817594797E-3 0
-8.834181433196017E-3 0
3.465407060633954E-3 0
-4.1301455246497195E-3 0
-2.2433148125855843E-2 0
7.3043717250606596E-3 0
-6.3456818316655885E-3 0
-2.486728190824236E-2 0
3.29329915760753E-2 0
3.239551926836548E-2 0
-2.691248604279962E-2 0
-8.900822811145964E-3 0
3.399463250313767E-3 0
-2.0387955311789444E-2 0
3.107852258863246E-3 0
-1.772067117977437E-2 0
5.401067000162311E-4 0
5.533850581585164E-4 0
-2.571571068760165E-3 0
1.297698114809885E-2 0
-2.275706234051681E-2 0
6.053773285564855E-1 0
-2.6488995981371336E-2 0
1.2050956722391162E-2 0
-8.457127999142743E-3 0
2.004319377169541E-3 0
-1.172103557901592E-3 0
-1.5452953457870285E-2 0
7.849804915056586E-3 0
-4.615021288967798E-3 0
-1.535808203066886E-3 0
9.426277837658745E-3 0
1.658368906838279E-3 0
4.0345878621015057E-4 0
-2.0294849410943294E-3 0
-1.7425941995773825E-3 0
5.816532334826536E-4 0
2.071011127105223E-3 0
1.0089645636078E-2 0
-1.3415574185118306E-3 0
-2.9922821713728367E-3 0
1.794681320234688E-3 0
-8.48599697749958E-3 0
1.5002512627579343E-3 0
-8.949783425956462E-3 0
8.076582253036435E-4 0
-8.013087857310312E-3 0
9.456752175560453E-4 0
-8.004792409481884E-3 0
2.195532552777898E-3 0
-9.164361795570683E-3 0
4.097820415184785E-3 0
-8.933776162149618E-3 0
3.2018370016460786E-3 0
1.0441969107236753E-2 0
-1.654609266096609E-2 0
7.423019505758761E-3 0
-6.82515218162731E-3 0
-2.543472865023238E-2 0
3.237630199382534E-2 0
3.184047498634518E-2 0
-2.716881404280769E-2 0
-8.916802142448409E-3 0
4.0727807615587E-3 0
-1.8857266020842485E-2 0
5.472131244468931E-3 0
-1.7215522876189448E-2 0
1.3818532440544918E-3 0
8.925654195519653E-4 0
-3.5831622570330693E-3 0
1.1895240045019101E-2 0
-2.6488995981371343E-2 0
6.05311916621778E-1 0
-3.019666486672462E-2 0
1.3580535564687754E-2 0
-1.1132535284687516E-2 0
3.8122793617177816E-3 0
-1.7105564423921427E-3 0
-1.517401103034106E-2 0
3.578531374346217E-3 0
-3.3732455196280797E-3 0
-1.5002092113670297E-3 0
9.512225038519126E-3 0
1.581064692307182E-3 0
4.894478892000673E-4 0
-2.091332621090538E-3 0
-1.7937624750343688E-3 0
6.505583560296254E-4 0
2.078756752045088E-3 0
1.0309962604977423E-2 0
-1.4153924091557528E-3 0
-3.4971683265829236E-3 0
1.6473804834726713E-3 0
-8.4288263591126E-3 0
1.6461912861524546E-3 0
-9.001840279738773E-3 0
1.4647078803648567E-3 0
-7.973642234714872E-3 0
1.6585025281835326E-3 0
-8.13319443362416E-3 0
2.924458728508692E-3 0
-9.509710696918486E-3 0
4.399160853524988E-3 0
-8.617857132986524E-3 0
-2.0755308827666213E-2 0
7.895842038459328E-3 0
-1.6946055288022923E-2 0
7.423008257817901E-3 0
-7.253278236293218E-3 0
-2.5801001548488803E-2 0
3.2286408942704084E-2 0
3.167627644947591E-2 0
-2.6765947545284764E-2 0
-8.130412457570126E-3 0
4.882458952793523E-3 0
-1.779380047759879E-2 0
7.161111604917569E-3 0
-1.7243006098032622E-2 0
1.831617355112924E-3 0
1.1534942257080663E-3 0
-5.770124234555571E-3 0
1.205095672239115E-2 0
-3.019666486672461E-2 0
6.071120982223108E-1 0
-3.409408670329462E-2 0
1.6650403988062248E-2 0
-1.375302780673772E-2 0
5.246192496339643E-3 0
-1.1060782893186636E-3 0
-1.044764575662087E-2 0
2.7638028278251237E-3 0
-3.3674505304668785E-3 0
-1.5339237927107102E-3 0
9.638027318736041E-3 0
1.4241445196603703E-3 0
5.606223504611885E-4 0
-2.116092699690374E-3 0
-1.8824746498858045E-3 0
7.093604446078058E-4 0
2.105331148204189E-3 0
1.0071916917332401E-2 0
-1.984556193696735E-3 0
-3.503664332813502E-3 0
1.6527766805023505E-3 0
-8.554806517144119E-3 0
2.5932740150989174E-3 0
-8.939240865944593E-3 0
2.243912139086615E-3 0
-8.111443312200518E-3 0
2.3884705134187747E-3 0
-8.48533239041527E-3 0
3.6322680440606715E-3 0
-9.617443572094994E-3 0
4.065320376933358E-3 0
1.2891873323580398E-3 0
-1.56663669460619E-2 0
8.234962212565764E-3 0
-1.7489311889552925E-2 0
7.521204885081489E-3 0
-7.42191479055043E-3 0
-2.5987098205516146E-2 0
3.284097875945567E-2 0
3.189914250297527E-2 0
-2.612711636647735E-2 0
-6.8461158166169085E-3 0
5.794224583029077E-3 0
-1.8677891747251766E-2 0
7.931190215211782E-3 0
-1.670245860631435E-2 0
1.0673485218591218E-3 0
1.1835177652296468E-3 0
-8.457127999142739E-3 0
1.3580535564687763E-2 0
-3.409408670329464E-2 0
6.109027707689308E-1 0
-3.891318016774972E-2 0
2.076835118314874E-2 0
-1.5392159852436424E-2 0
3.6723450909725637E-3 0
4.759221831846232E-3 0
-7.756864926842079E-3 0
2.877260485507744E-3 0
-3.320860559536503E-3 0
-1.6876695801946895E-3 0
9.849735185795214E-3 0
1.223807381744083E-3 0
5.698126821831544E-4 0
-2.040497056124064E-3 0
-2.0734313093935457E-3 0
5.762370045496879E-4 0
1.5892961241638036E-3 0
1.0446252293867636E-2 0
-1.9183969300754454E-3 0
-3.3723115239533753E-3 0
2.4233166321487786E-3 0
-8.447591176474289E-3 0
3.4226532290818215E-3 0
-9.118260512505623E-3 0
2.9549727900200313E-3 0
-8.471185599007941E-3 0
3.093039105544929E-3 0
-8.978732992554523E-3 0
3.945734077833471E-3 0
-9.4326888797058E-3 0
1.685406360323947E-4 0
1.409662780505649E-3 0
-1.6331680782366395E-2 0
8.774094895234152E-3 0
-1.8034983167392684E-2 0
7.688823123364898E-3 0
-7.089529012657835E-3 0
-2.619968883233025E-2 0
3.403698286600055E-2 0
3.2649984776712916E-2 0
-2.6313158354048155E-2 0
-6.254422270557409E-3 0
6.45069875436067E-3 0
-1.98845335316881E-2 0
8.389259661197458E-3 0
-1.6530654514506204E-2 0
-2.3120908994136917E-4 0
2.0043193771695483E-3 0
-1.1132535284687512E-2 0
1.6650403988062234E-2 0
-3.8913180167749695E-2 0
6.168280333616595E-1 0
-4.506459516502862E-2 0
2.3443028740620906E-2 0
-1.2938430327253322E-2 0
-1.1758138183848993E-2 0
3.767431398210509E-3 0
-7.890034335049674E-3 0
2.9171192996860426E-3 0
-3.21097402074082E-3 0
-1.967017566445031E-3 0
1.0123044798604893E-2 0
1.0685664683055941E-3 0
4.165759213290388E-4 0
-2.007987005015617E-3 0
-2.3110139745159772E-3 0
3.887611492477431E-4 0
1.4447683095164322E-3 0
1.079352307555376E-2 0
-1.6244076448497648E-3 0
-3.579894032808368E-3 0
3.1140565379494476E-3 0
-8.812636201170758E-3 0
4.124448186647904E-3 0
-9.482207768367288E-3 0
3.6517400719092287E-3 0
-8.970050113766835E-3 0
3.789635000297293E-3 0
-9.169442531146921E-3 0
3.628718932100312E-3 0
-9.718834620849465E-3 0
-5.957396145460492E-4 0
1.9838252922608083E-3 0
-1.713137729303289E-2 0
9.511868401879542E-3 0
-1.836530012960165E-2 0
7.812932350614869E-3 0
-6.203099260708996E-3 0
-2.6547550484727536E-2 0
3.5571087609930795E-2 0
3.435945616953274E-2 0
-2.7087740137322156E-2 0
-6.549582798840774E-3 0
7.775116298897027E-3 0
-2.038542920103949E-2 0
7.4752247133357905E-3 0
-1.691783050982043E-2 0
-1.1721035579016117E-3 0
3.812279361717811E-3 0
-1.3753027806737745E-2 0
2.0768351183148754E-2 0
-4.506459516502862E-2 0
6.244804110438102E-1 0
-4.9861215941234056E-2 0
2.0013512220448858E-2 0
3.867950134286117E-3 0
-8.480303372824986E-3 0
3.70838400707275E-3 0
-7.752451707677443E-3 0
2.6733823095652677E-3 0
-2.9223840590215985E-3 0
-2.3030631879990223E-3 0
1.0261496688985178E-2 0
1.4145230659570233E-3 0
2.3630544823481116E-4 0
-2.2229297967471503E-3 0
-2.795801765325565E-3 0
3.533740358450037E-4 0
1.6113373466110895E-3 0
1.0391313412154858E-2 0
-1.5605418092810536E-3 0
-4.364485354962125E-3 0
3.4181904251330743E-3 0
-8.931822689071752E-3 0
4.417006780656658E-3 0
-9.599685314776977E-3 0
3.9566293839594E-3 0
-9.165106805553283E-3 0
3.739574687781314E-3 0
-8.679659228410649E-3 0
1.3500990230438627E-2 0
-6.150813721632125E-3 0
-1.1739557220205395E-3 0
2.5296996726426888E-3 0
-1.7541562680950792E-2 0
9.578860153811488E-3 0
-1.7872478390425262E-2 0
7.32912127932235E-3 0
-4.732672436322716E-3 0
-2.7060142125938356E-2 0
3.59802526417725E-2 0
3.705507802995893E-2 0
-2.9338256746878805E-2 0
-8.55482806853089E-3 0
7.373748570727022E-3 0
-2.1034033993374404E-2 0
7.811319347815989E-3 0
-1.5452953457870296E-2 0
-1.7105564423921312E-3 0
5.246192496339627E-3 0
-1.5392159852436428E-2 0
2.344302874062095E-2 0
-4.98612159412341E-2 0
6.263422654086075E-1 0
-4.2425974833971335E-2 0
-9.982168508764763E-3 0
2.2703563970924985E-3 0
-8.191699411356178E-3 0
3.1690979936904195E-3 0
-7.575312231389237E-3 0
2.351588352625266E-3 0
-2.970428758290086E-3 0
-2.18195491098372E-3 0
1.0149664289845392E-2 0
1.779738186284464E-3 0
2.929214185789666E-4 0
-2.190085006836762E-3 0
-2.682274126134531E-3 0
2.8539674314208453E-4 0
1.1538937893367078E-3 0
9.623524763296604E-3 0
-1.6025732608500806E-3 0
-4.196243181745818E-3 0
3.193889389545423E-3 0
-8.60995931771934E-3 0
4.076134726089366E-3 0
-9.425561864260535E-3 0
3.6326815956301555E-3 0
-8.678737956522974E-3 0
2.4461459293604135E-3 0
-3.996360351156962E-2 0
8.521646634918556E-3 0
-6.0163109756891766E-3 0
-1.0668694277826715E-3 0
1.9418457290182284E-3 0
-1.6940469073599813E-2 0
8.592524014089095E-3 0
-1.7323071076396475E-2 0
6.85807791320724E-3 0
-5.1660468225409335E-3 0
-2.6939862633035404E-2 0
3.439362920282599E-2 0
3.903846214911507E-2 0
-2.718685232106071E-2 0
-7.932760016219051E-3 0
8.115631707571474E-3 0
-1.8291972199793664E-2 0
7.849804915056597E-3 0
-1.5174011030341055E-2 0
-1.1060782893186612E-3 0
3.6723450909725793E-3 0
-1.2938430327253348E-2 0
2.0013512220448896E-2 0
-4.242597483397131E-2 0
6.19417761843779E-1 0
