%%MatrixMarket matrix array complex general
%
50 50
4.8656970671119104E-1 0
1.0311998120737969E-3 0
-4.391015827378629E-3 0
-1.784989673913907E-3 0
8.513535052242937E-4 0
-1.1465288622042474E-3 0
2.6134591487999392E-3 0
8.603296197574927E-4 0
-1.5848872218792618E-3 0
3.1350750727421415E-3 0
-5.030733911158076E-3 0
1.7326629008858425E-4 0
-4.163470790543318E-3 0
-4.163470790543359E-3 0
1.7301734465522306E-4 0
-5.029603531266745E-3 0
3.132029197214849E-3 0
-1.5779873715655688E-3 0
8.465923952063482E-4 0
2.6363643869863652E-3 0
-1.1723037309515731E-3 0
8.564021765956064E-4 0
-1.6890684718640298E-3 0
-4.600195345660475E-3 0
1.2135566265032319E-3 0
-9.101290082451701E-3 0
4.199073855884455E-3 0
2.603861966446526E-3 0
6.920287855275804E-3 0
-7.014346517853732E-3 0
1.510394787177859E-2 0
2.8825212558307067E-3 0
2.1982333692177267E-3 0
1.06538249239129E-3 0
-8.864422948353727E-6 0
-4.718976218411474E-3 0
-5.656394619091369E-5 0
-4.531247546616392E-3 0
-4.531247546615692E-3 0
-4.741985825528986E-5 0
-4.760496534677403E-3 0
9.577027354199866E-5 0
8.607441645271814E-4 0
2.5504930400889066E-3 0
2.321747747154461E-3 0
1.593883736305968E-2 0
-8.140533137813743E-3 0
8.220146593873138E-3 0
1.5171609842826203E-3 0
4.867912121072078E-3 0
1.031199812073791E-3 0
4.928249960055688E-1 0
7.32886114096708E-4 0
-3.225678369407546E-3 0
-1.3222184067155566E-3 0
6.096867635998433E-4 0
-8.406180305166828E-4 0
1.931387552804919E-3 0
6.820694912115207E-4 0
-1.0772952471922424E-3 0
2.3474753800622047E-3 0
-3.7165029291015062E-3 0
3.0111855421974656E-5 0
-3.078902258030682E-3 0
-2.8823939715321694E-3 0
1.1132358761677404E-4 0
-3.724459115569086E-3 0
2.2536631844341463E-3 0
-1.1680765862018545E-3 0
6.253223478410118E-4 0
1.9681725034372006E-3 0
-8.985808872246218E-4 0
7.353897271500381E-4 0
-1.3713924011997506E-3 0
-3.3563308870601183E-3 0
4.19907385588394E-3 0
-4.863035197219728E-3 0
3.073280743446692E-3 0
1.9220905016753488E-3 0
5.082621116630441E-3 0
-5.03439142671792E-3 0
1.1123886863295303E-2 0
2.2708097045043077E-3 0
1.858468079889864E-3 0
1.0454323372129219E-3 0
1.993942601494255E-4 0
-3.3348637534122E-3 0
-5.066344376027255E-5 0
-3.351397756846097E-3 0
-3.1766535809040213E-3 0
-9.351544562970388E-5 0
-3.640429837176665E-3 0
-4.241761560259239E-5 0
4.530200960941389E-4 0
1.9327347743538243E-3 0
1.448532824348845E-3 0
1.1878155974896736E-2 0
-6.344640969648221E-3 0
6.1568897845319095E-3 0
1.4671052279718842E-3 0
-4.39101582737863E-3 0
7.328861140967318E-4 0
4.928108379550336E-1 0
7.136943058996848E-4 0
-3.2464101857640317E-3 0
-1.337056708239228E-3 0
6.124878313666019E-4 0
-8.078346837917957E-4 0
2.006564143038934E-3 0
7.799566580665386E-4 0
-9.619972130931363E-4 0
2.3013029817063584E-3 0
-4.027578969936248E-3 0
1.1408031127923121E-4 0
-2.908290449321435E-3 0
-2.94002055529964E-3 0
1.5244919463926925E-4 0
-3.7101502156181645E-3 0
2.327438534124524E-3 0
-1.156044975872396E-3 0
6.689560601699496E-4 0
2.003312697303103E-3 0
-9.491062808996984E-4 0
8.210670655128921E-4 0
-1.4582419275408567E-3 0
2.6038619664472576E-3 0
3.074198875790822E-3 0
-4.825250142334848E-3 0
3.123367595901267E-3 0
1.9881617819347236E-3 0
5.174679820365906E-3 0
-4.900367416175527E-3 0
1.1315052016624026E-2 0
2.5298090262766484E-3 0
2.1590844404596682E-3 0
1.3716170918092285E-3 0
3.575832690421634E-4 0
-3.577160143679245E-3 0
-1.2695327106730718E-4 0
-3.3558344150383295E-3 0
-3.431454288642489E-3 0
-2.1189189488354714E-4 0
-3.7455933797679655E-3 0
-4.535390666362738E-5 0
3.6670028159574734E-4 0
2.019852675502811E-3 0
1.2411915036320208E-3 0
1.217557339950448E-2 0
-6.5248136898553525E-3 0
5.940944188701815E-3 0
-1.784989673913907E-3 0
-3.22567836940754E-3 0
7.13694305899684E-4 0
4.927864727662696E-1 0
6.885129407617531E-4 0
-3.264284405397615E-3 0
-1.335768802279173E-3 0
6.438543758436725E-4 0
-7.355586909529804E-4 0
2.091298787663133E-3 0
8.141095851526873E-4 0
-1.1472089637316783E-3 0
2.275377071259094E-3 0
-3.917867143652851E-3 0
1.2620955362705683E-4 0
-2.8674570903455855E-3 0
-2.8320693075895333E-3 0
2.8406538071126743E-4 0
-3.6574901642875586E-3 0
2.4482346996085873E-3 0
-1.1691871781912616E-3 0
7.372663958564189E-4 0
1.993941351389694E-3 0
-9.22299290995532E-4 0
7.394157730993118E-4 0
6.920287855275086E-3 0
1.9252407330355842E-3 0
3.1270086511099586E-3 0
-4.760946541731362E-3 0
3.202544514683456E-3 0
2.0929111702515297E-3 0
5.322506965202405E-3 0
-4.693157250329013E-3 0
1.1598081737823953E-2 0
2.85858407196501E-3 0
2.470550586388211E-3 0
1.3718205271690557E-3 0
1.5786941806542892E-4 0
-3.6805307244800927E-3 0
-3.0691172063883E-4 0
-3.481219156648933E-3 0
-3.416688419788718E-3 0
-1.6726795700256237E-4 0
-3.7019582103823426E-3 0
-1.0449480457405163E-6 0
3.749639164037023E-4 0
2.014508968683092E-3 0
1.1783972482944168E-3 0
1.2013652834555435E-2 0
-5.973305036536106E-3 0
8.513535052242934E-4 0
-1.3222184067155582E-3 0
-3.2464101857640312E-3 0
6.88512940761742E-4 0
4.927601629253526E-1 0
6.670633302282919E-4 0
-3.272408538018836E-3 0
-1.323992699756863E-3 0
6.83070440348627E-4 0
-6.996094235039578E-4 0
2.122298497236865E-3 0
6.912885099575753E-4 0
-1.314310387791486E-3 0
2.4031210756827004E-3 0
-3.740535568673033E-3 0
5.412604769100051E-5 0
-2.72355966100129E-3 0
-2.7110514693441806E-3 0
4.664498034770815E-4 0
-3.638662121618039E-3 0
2.5779247169854E-3 0
-1.2487975177433764E-3 0
8.094287852856701E-4 0
1.936492833051255E-3 0
-8.871352879553499E-4 0
-7.014346517853217E-3 0
5.088855545793411E-3 0
1.9974834901423507E-3 0
3.209802806786285E-3 0
-4.666614274250943E-3 0
3.3169707591019838E-3 0
2.2430034081431646E-3 0
5.522217300799114E-3 0
-4.421440077037707E-3 0
1.1916928330331082E-2 0
3.184290406327945E-3 0
2.5114608549894877E-3 0
1.3170398868811131E-3 0
1.2801299775382376E-4 0
-3.727207289677202E-3 0
-5.03094896738455E-4 0
-3.384519960637453E-3 0
-3.2829593200217155E-3 0
-2.4213440236634392E-5 0
-3.6150730860587846E-3 0
6.162370036934636E-6 0
4.6485899017557057E-4 0
1.848628068129309E-3 0
1.6209057544877374E-3 0
1.1764484917768825E-2 0
-1.1465288622042476E-3 0
6.096867635998376E-4 0
-1.3370567082392286E-3 0
-3.2642844053976036E-3 0
6.6706333022828E-4 0
4.927357068517718E-1 0
6.412518463140454E-4 0
-3.299766586189257E-3 0
-1.351389939976836E-3 0
6.295106730722476E-4 0
-7.995738553446981E-4 0
1.8506282233088855E-3 0
5.714647844670477E-4 0
-1.1475033543883678E-3 0
2.3248246173372174E-3 0
-3.6614737403286714E-3 0
2.6608466748836757E-4 0
-2.504717835058301E-3 0
-2.598864703841937E-3 0
6.102219120322044E-4 0
-3.700320352514812E-3 0
2.7122870505602793E-3 0
-1.4183412554633588E-3 0
9.224831421635207E-4 0
1.9367820818195324E-3 0
1.5103947871778321E-2 0
-5.025384814476391E-3 0
5.18970271327215E-3 0
2.108729938666787E-3 0
3.3275165140034405E-3 0
-4.539050243544508E-3 0
3.4644416360476477E-3 0
2.418711655871781E-3 0
5.7449194530918846E-3 0
-4.179712542722326E-3 0
1.2281124503235897E-2 0
3.2740987818457453E-3 0
2.4639325605933762E-3 0
1.256922679113912E-3 0
-2.2464284622253315E-4 0
-3.937547296411931E-3 0
-2.841818248107358E-4 0
-3.1423158748024134E-3 0
-3.1154786151845098E-3 0
7.87869941496468E-5 0
-3.5963288603787905E-3 0
-1.8955007025550434E-5 0
5.216530600977359E-4 0
1.6117811406688393E-3 0
2.1221275953227014E-3 0
2.613459148799943E-3 0
-8.406180305166771E-4 0
6.124878313666119E-4 0
-1.3357688022791769E-3 0
-3.2724085380188223E-3 0
6.412518463140254E-4 0
4.926843084925812E-1 0
5.564402758619043E-4 0
-3.4242387029389926E-3 0
-1.5293937050237334E-3 0
3.99648048360628E-4 0
-1.0410545232800944E-3 0
1.8993029925107846E-3 0
7.057099700935143E-4 0
-1.0290039000359135E-3 0
2.43321285043808E-3 0
-3.4224101405268487E-3 0
4.633697820016184E-4 0
-2.3550608602057057E-3 0
-2.57622781575227E-3 0
6.793278164327931E-4 0
-3.850910746238782E-3 0
2.8298161362807716E-3 0
-1.5789898820292136E-3 0
8.724665956262318E-4 0
2.882521255830784E-3 0
1.1133093812629578E-2 0
-4.883655589111796E-3 0
5.343268254345915E-3 0
2.2627233959078E-3 0
3.4771277395595594E-3 0
-4.391414837666049E-3 0
3.612722716913527E-3 0
2.574071470861073E-3 0
5.873767070392361E-3 0
-4.070972340632719E-3 0
1.2096219677496753E-2 0
3.2653260558459622E-3 0
2.5746944614473528E-3 0
1.0941289636598492E-3 0
-1.1908771646924987E-4 0
-3.5438041955243673E-3 0
-5.692702718597436E-5 0
-2.9795291317207115E-3 0
-3.083076707417833E-3 0
1.0585925145184291E-4 0
-3.703434206424106E-3 0
7.746523606721599E-7 0
4.732036506354449E-4 0
1.6970167443435573E-3 0
8.603296197574951E-4 0
1.9313875528049185E-3 0
-8.078346837918074E-4 0
6.43854375843678E-4 0
-1.3239926997568646E-3 0
-3.2997665861892365E-3 0
5.564402758619236E-4 0
4.925287062711205E-1 0
3.1916472814548123E-4 0
-3.7378448535128656E-3 0
-1.8627801897764652E-3 0
1.8843509980411558E-4 0
-1.120148103339946E-3 0
1.9922179405380313E-3 0
8.261986159738742E-4 0
-8.058185776968932E-4 0
2.67566860272388E-3 0
-3.2612517486234334E-3 0
5.576941278224271E-4 0
-2.3616067705500275E-3 0
-2.650445579014082E-3 0
6.534643545124911E-4 0
-4.0475010162399445E-3 0
2.8090491689706353E-3 0
-1.4767969442508338E-3 0
2.1982333692177813E-3 0
2.2752681117505238E-3 0
1.132511372863634E-2 0
-4.6765799528524585E-3 0
5.544024440374214E-3 0
2.44148889426033E-3 0
3.6289116507552204E-3 0
-4.268582303289782E-3 0
3.707936148514811E-3 0
2.6295351763787975E-3 0
5.87406982201116E-3 0
-4.114210449285539E-3 0
1.2814768004017454E-2 0
3.3563488716190524E-3 0
2.350943919870632E-3 0
1.067240831272821E-3 0
2.3540581864276415E-5 0
-3.416297198003508E-3 0
1.7411249716742052E-5 0
-2.9918471411921454E-3 0
-3.183914365991308E-3 0
6.123881690098975E-5 0
-3.8582493112875667E-3 0
1.034510736522237E-5 0
6.077799331310268E-4 0
-1.584887221879264E-3 0
6.820694912115236E-4 0
2.006564143038939E-3 0
-7.355586909529887E-4 0
6.83070440348628E-4 0
-1.3513899399768441E-3 0
-3.4242387029390043E-3 0
3.1916472814548096E-4 0
4.921743941993654E-1 0
-1.1454528694072932E-4 0
-4.263644715934587E-3 0
-2.19052956286435E-3 0
1.6972294445031112E-4 0
-1.033225908750216E-3 0
2.2671941096649886E-3 0
1.2824168988923273E-3 0
-5.977724417714992E-4 0
2.808915344665928E-3 0
-3.299669761246002E-3 0
5.213820158066038E-4 0
-2.5342086951531595E-3 0
-2.779586490085873E-3 0
5.459238155627256E-4 0
-4.106010164705997E-3 0
2.590033509628592E-3 0
1.0653824923911996E-3 0
1.8516029594449039E-3 0
2.5214139831615827E-3 0
1.1596981276676048E-2 0
-4.409205425086478E-3 0
5.769920632986591E-3 0
2.6052439191235986E-3 0
3.7333255034020726E-3 0
-4.23138448581581E-3 0
3.663897414358741E-3 0
2.6128674307200487E-3 0
5.958590979076803E-3 0
-4.1934775977689E-3 0
1.2875850732714019E-2 0
3.018958297462565E-3 0
2.182951624552417E-3 0
1.0708228401547632E-3 0
8.098887009482151E-5 0
-3.4607338944051933E-3 0
-6.51153526712246E-5 0
-3.1590903692170313E-3 0
-3.3745255022802323E-3 0
2.6208668784784965E-5 0
-3.9684687731941955E-3 0
-4.714954602193478E-6 0
3.135075072742145E-3 0
-1.077295247192245E-3 0
7.799566580665394E-4 0
2.0912987876631375E-3 0
-6.996094235039585E-4 0
6.295106730722482E-4 0
-1.5293937050237269E-3 0
-3.7378448535128617E-3 0
-1.1454528694070471E-4 0
4.916950462702864E-1 0
-5.515852326094326E-4 0
-4.310884111524272E-3 0
-2.15904300681381E-3 0
2.1254280055416818E-4 0
-6.798698832272572E-4 0
2.5165997612020194E-3 0
1.3366237671003371E-3 0
-6.333020376382563E-4 0
2.7548510710293014E-3 0
-3.540997177550317E-3 0
3.9947236023700185E-4 0
-2.823599453697632E-3 0
-2.8526580319974855E-3 0
3.014895379891028E-4 0
-4.02541229119802E-3 0
-8.864422948313728E-6 0
1.0319446919363155E-3 0
2.1384462775025123E-3 0
2.8464024004499983E-3 0
1.1924599956723271E-2 0
-4.154486794101292E-3 0
5.909891331532994E-3 0
2.6689257795826297E-3 0
3.682870944562159E-3 0
-4.464097147993573E-3 0
3.3341455892593103E-3 0
2.502138466853902E-3 0
6.459601004989546E-3 0
-4.075889983926308E-3 0
1.2312592845810617E-2 0
3.2402458960713947E-3 0
2.3419845020452826E-3 0
1.029158948746263E-3 0
3.245701162529324E-5 0
-3.650379348232593E-3 0
-2.355023406601108E-4 0
-3.4365235418634737E-3 0
-3.453259297611554E-3 0
-5.9883059667826394E-5 0
-3.8627103213625825E-3 0
-5.030733911158081E-3 0
2.3474753800622034E-3 0
-9.619972130931385E-4 0
8.141095851526833E-4 0
2.1222984972368657E-3 0
-7.99573855344694E-4 0
3.996480483606177E-4 0
-1.8627801897764787E-3 0
-4.263644715934588E-3 0
-5.515852326094307E-4 0
4.912590142528937E-1 0
-7.477499372500006E-4 0
-4.50573013997406E-3 0
-2.1896414461046077E-3 0
6.105963564945496E-4 0
-2.9900941440632966E-4 0
2.495782822178529E-3 0
1.337279367543231E-3 0
-9.071606526924987E-4 0
2.590210365275827E-3 0
-3.873814766457831E-3 0
3.0020637408851653E-4 0
-3.0739747676591877E-3 0
-2.8485638966840817E-3 0
1.0479565481358675E-4 0
-4.718976218411396E-3 0
1.8977480210951873E-4 0
1.3888111300091519E-3 0
2.456823075338202E-3 0
3.2351970772368575E-3 0
1.2316538089001097E-2 0
-4.064732570933975E-3 0
5.910947525313774E-3 0
2.586275228443807E-3 0
3.305769445490682E-3 0
-4.853535117117018E-3 0
3.5645260552815954E-3 0
3.196706550551372E-3 0
6.6992601247577175E-3 0
-3.527115207830013E-3 0
1.2691036174497905E-2 0
3.2510985390133695E-3 0
2.252200157093497E-3 0
9.54904251630432E-4 0
-1.0733744666755446E-5 0
-4.126794140645942E-3 0
-3.744829702367902E-4 0
-3.6138665957477275E-3 0
-3.3919865159826685E-3 0
-1.0682525777971718E-4 0
1.7326629008858287E-4 0
-3.7165029291015045E-3 0
2.3013029817063628E-3 0
-1.1472089637316791E-3 0
6.91288509957572E-4 0
1.8506282233088824E-3 0
-1.0410545232800899E-3 0
1.884350998041229E-4 0
-2.1905295628643455E-3 0
-4.310884111524272E-3 0
-7.477499372500664E-4 0
4.911637021163718E-1 0
-7.590976152325655E-4 0
-4.71066285053247E-3 0
-1.8196372658225528E-3 0
6.025649321462349E-4 0
-6.547638580620743E-4 0
2.2136306166520925E-3 0
9.237294945452695E-4 0
-1.1911073563296883E-3 0
2.575396910706481E-3 0
-4.09066341044662E-3 0
5.471646492561783E-4 0
-3.274727741902606E-3 0
-2.885353731875773E-3 0
-5.6563946191135066E-5 0
-3.309626183782055E-3 0
4.975122551118809E-4 0
1.4187692761982768E-3 0
2.6677328255785473E-3 0
3.3460905150660826E-3 0
1.2058139959346563E-2 0
-4.12947709110441E-3 0
5.76189407054564E-3 0
2.332997880958384E-3 0
3.345045541984017E-3 0
-4.190250423367143E-3 0
4.520391785498846E-3 0
3.4220626043994415E-3 0
6.731553746135979E-3 0
-3.3185327693221814E-3 0
1.2512620729864652E-2 0
3.1554855149590467E-3 0
2.4651272926429694E-3 0
9.836965093066113E-4 0
-8.405503547308203E-5 0
-4.171030293113277E-3 0
-1.4529939527641541E-6 0
-3.817273995891718E-3 0
-3.232534096687617E-3 0
-4.1634707905433156E-3 0
3.0111855421973226E-5 0
-4.027578969936249E-3 0
2.275377071259092E-3 0
-1.3143103877914877E-3 0
5.71464784467049E-4 0
1.8993029925107867E-3 0
-1.1201481033399456E-3 0
1.6972294445030925E-4 0
-2.1590430068138063E-3 0
-4.505730139974059E-3 0
-7.59097615232564E-4 0
4.901377198881573E-1 0
-1.0066619267450597E-3 0
-4.712205551425949E-3 0
-2.1826365452934063E-3 0
1.9432175483853238E-4 0
-9.948742012594856E-4 0
1.9182263920472457E-3 0
8.408281996961221E-4 0
-1.3824369986112387E-3 0
2.7746951441287864E-3 0
-4.440993123949048E-3 0
6.440958406326724E-4 0
-3.488152243130957E-3 0
-4.531247546616103E-3 0
-2.1210762590809722E-5 0
-3.459513083429766E-3 0
2.1485287709254206E-4 0
1.4332903242889397E-3 0
2.5161946189552575E-3 0
3.23670735413747E-3 0
1.278115657143548E-2 0
-4.360989018308932E-3 0
6.312952103941876E-3 0
2.961950856037074E-3 0
4.321033630831292E-3 0
-3.9250305050968605E-3 0
4.90446772438974E-3 0
3.6172143092178042E-3 0
6.9531159339380815E-3 0
-3.97621005409623E-3 0
1.3129651849033756E-2 0
3.255840798323954E-3 0
2.7918874820787986E-3 0
9.512169156102952E-4 0
3.4208343762622803E-4 0
-4.1619364468787525E-3 0
1.811496139427393E-4 0
-3.760711822162725E-3 0
-4.163470790543357E-3 0
-3.078902258030686E-3 0
1.1408031127922789E-4 0
-3.917867143652852E-3 0
2.4031210756827034E-3 0
-1.1475033543883646E-3 0
7.05709970093512E-4 0
1.992217940538032E-3 0
-1.0332259087502116E-3 0
2.125428005541652E-4 0
-2.1896414461046077E-3 0
-4.710662850532471E-3 0
-1.0066619267450597E-3 0
4.9013771988815724E-1 0
-7.586174743075968E-4 0
-4.507910303069195E-3 0
-2.152926955946017E-3 0
1.5478848859331934E-4 0
-1.085419844510931E-3 0
1.82344775723312E-3 0
7.275650314022876E-4 0
-1.5993558751176006E-3 0
2.7446155017809126E-3 0
-4.564112849008349E-3 0
2.9303556681393794E-4 0
-4.531247546615992E-3 0
-3.3808504380154606E-3 0
-2.44600331316934E-4 0
-3.737514183507074E-3 0
1.1762560345913792E-5 0
1.2046606207520643E-3 0
2.603313163155821E-3 0
3.3899603042010324E-3 0
1.304336215325405E-2 0
-3.929241082878644E-3 0
6.934015819272019E-3 0
3.6214207590670004E-3 0
4.9044677243897435E-3 0
-3.925030505096847E-3 0
4.326583235090847E-3 0
2.9367519159548576E-3 0
6.374694881157435E-3 0
-4.473324220688135E-3 0
1.2951868846950518E-2 0
3.007391400324917E-3 0
2.8001389864124606E-3 0
1.1018710582707061E-3 0
6.082909377121992E-4 0
-3.8498537062954504E-3 0
1.6023486216369773E-4 0
1.7301734465521827E-4 0
-2.8823939715321694E-3 0
-2.9082904493214334E-3 0
1.2620955362705808E-4 0
-3.740535568673033E-3 0
2.324824617337217E-3 0
-1.0290039000359179E-3 0
8.261986159738718E-4 0
2.2671941096649904E-3 0
-6.798698832272545E-4 0
6.10596356494558E-4 0
-1.819637265822558E-3 0
-4.712205551425945E-3 0
-7.586174743075989E-4 0
4.911640130812533E-1 0
-7.484534053871217E-4 0
-4.310342951203347E-3 0
-2.189511732429093E-3 0
1.8191972206041136E-4 0
-1.0192182177980685E-3 0
1.7892685166562817E-3 0
8.314359844951284E-4 0
-1.4411877591037456E-3 0
2.6960946348413765E-3 0
-4.1240197766003244E-3 0
-4.741985825511576E-5 0
-3.201891734865562E-3 0
-3.4957637518822325E-3 0
-3.5386188538523493E-4 0
-3.8834793732119696E-3 0
-2.9663492556738184E-4 0
1.1322081471397158E-3 0
2.366211576226792E-3 0
3.2156560417673386E-3 0
1.2481734884323878E-2 0
-3.307628812206918E-3 0
6.73156944918301E-3 0
3.4178676993048417E-3 0
4.525929845003789E-3 0
-4.203474933969517E-3 0
3.3827370987520003E-3 0
2.251084600036934E-3 0
5.905418696569657E-3 0
-4.346180661808785E-3 0
1.2350333463389278E-2 0
2.9889253974721623E-3 0
3.0604676080926998E-3 0
1.0198060441196088E-3 0
8.319972301135015E-4 0
-3.635462951055176E-3 0
-5.029603531266747E-3 0
1.1132358761677806E-4 0
-2.940020555299637E-3 0
-2.8674570903455907E-3 0
5.412604769099925E-5 0
-3.6614737403286714E-3 0
2.43321285043808E-3 0
-8.05818577696892E-4 0
1.2824168988923373E-3 0
2.5165997612020398E-3 0
-2.9900941440632315E-4 0
6.025649321462265E-4 0
-2.1826365452934067E-3 0
-4.507910303069196E-3 0
-7.484534053871382E-4 0
4.9125899130582135E-1 0
-5.476438258207669E-4 0
-4.272610353944176E-3 0
-1.8514146349954334E-3 0
3.91004002489773E-4 0
-7.948517213991358E-4 0
2.110754771969475E-3 0
8.817491936364851E-4 0
-1.0951072513130703E-3 0
2.552883585055718E-3 0
-4.76049653467743E-3 0
-8.389333433185916E-5 0
-3.4486467340912267E-3 0
-3.467485217289698E-3 0
-5.540010547976966E-4 0
-3.9729593105387795E-3 0
-1.2532505840477139E-4 0
1.0303585212877366E-3 0
2.2095400318536307E-3 0
3.268615443977253E-3 0
1.269100946477935E-2 0
-3.538084585026682E-3 0
6.718307818464409E-3 0
3.1715600314285463E-3 0
3.6022947967820048E-3 0
-4.923516499484272E-3 0
3.429466916203769E-3 0
2.3880598696071134E-3 0
6.203015413374105E-3 0
-4.465258621837687E-3 0
1.2824459554015904E-2 0
2.6607363087944205E-3 0
3.00017821735407E-3 0
1.0089414698506273E-3 0
3.5634995564607844E-4 0
3.1320291972148522E-3 0
-3.72445911556909E-3 0
1.5244919463927193E-4 0
-2.832069307589531E-3 0
-2.7235596610012897E-3 0
2.660846674883672E-4 0
-3.422410140526849E-3 0
2.675668602723884E-3 0
-5.977724417714979E-4 0
1.336623767100345E-3 0
2.4957828221785273E-3 0
-6.547638580620788E-4 0
1.9432175483853221E-4 0
-2.152926955946021E-3 0
-4.310342951203353E-3 0
-5.476438258207546E-4 0
4.9167568770605247E-1 0
-7.402357434016887E-5 0
-3.79460971113927E-3 0
-1.472911789969362E-3 0
5.980416541057504E-4 0
-7.146239590803128E-4 0
2.142121703316679E-3 0
7.365487664506247E-4 0
-1.1190608825056593E-3 0
9.57702735418803E-5 0
-3.6269486427347205E-3 0
-1.9125764379563693E-4 0
-3.404522378822245E-3 0
-3.3921929080103206E-3 0
-3.0941144883237935E-4 0
-3.5799343722563025E-3 0
-1.583884907353802E-5 0
1.0518585992031729E-3 0
2.3420005730300504E-3 0
3.222780316327347E-3 0
1.2343635160355972E-2 0
-4.122743505107069E-3 0
6.521228332168273E-3 0
2.4200716220082745E-3 0
3.457778543731405E-3 0
-4.648716105536837E-3 0
3.948903742301485E-3 0
2.2944187264560163E-3 0
6.428891048233954E-3 0
-4.854640344547087E-3 0
1.2798751735972513E-2 0
1.9092993839554444E-3 0
2.8845382793417497E-3 0
7.451520950875698E-4 0
-1.5779873715655722E-3 0
2.2536631844341506E-3 0
-3.7101502156181706E-3 0
2.8406538071126065E-4 0
-2.7110514693441776E-3 0
-2.5047178350583E-3 0
4.6336978200161926E-4 0
-3.261251748623431E-3 0
2.808915344665933E-3 0
-6.33302037638252E-4 0
1.3372793675432264E-3 0
2.2136306166520947E-3 0
-9.948742012594889E-4 0
1.5478848859332172E-4 0
-2.1895117324290947E-3 0
-4.272610353944169E-3 0
-7.402357434017342E-5 0
4.9208653473902486E-1 0
4.530908924998494E-4 0
-3.582491056374538E-3 0
-1.2111483255700143E-3 0
6.131631994221215E-4 0
-7.849346379976013E-4 0
2.14239756368432E-3 0
6.353912049095905E-4 0
8.607441645274352E-4 0
-3.554100537777724E-5 0
-3.737191173697792E-3 0
-1.6613964848950202E-4 0
-3.2951912519531843E-3 0
-3.1673098830421096E-3 0
-8.808887458993051E-5 0
-3.441706313862945E-3 0
8.09720146373537E-5 0
1.048103683255181E-3 0
2.2255395674473572E-3 0
2.9586033880401575E-3 0
1.2961994265401327E-2 0
-4.3056666370556995E-3 0
6.102301660307166E-3 0
2.4147166595333254E-3 0
3.929968305530512E-3 0
-4.5779972526415235E-3 0
4.186430953706704E-3 0
1.9947427785716367E-3 0
6.619557404449905E-3 0
-5.556077312768355E-3 0
1.2977314634920568E-2 0
1.2805823081501813E-3 0
2.5741719767709646E-3 0
8.465923952063514E-4 0
-1.168076586201852E-3 0
2.327438534124528E-3 0
-3.6574901642875577E-3 0
4.6644980347708176E-4 0
-2.598864703841933E-3 0
-2.3550608602057057E-3 0
5.576941278224302E-4 0
-3.2996697612459884E-3 0
2.754851071029301E-3 0
-9.07160652692501E-4 0
9.237294945452698E-4 0
1.9182263920472452E-3 0
-1.0854198445109323E-3 0
1.8191972206040426E-4 0
-1.8514146349954165E-3 0
-3.7946097111392903E-3 0
4.5309089249985474E-4 0
4.9230642751557946E-1 0
8.508872781722254E-4 0
-3.619818992904158E-3 0
-1.0498533120895112E-3 0
5.069015831905686E-4 0
-8.257722172008492E-4 0
2.0829658588870474E-3 0
2.5504930400886004E-3 0
4.4854493101708585E-4 0
-5.5426626490989926E-5 0
-3.718576194528175E-3 0
-4.6025674665432584E-5 0
-3.138267205909253E-3 0
-2.995733842947221E-3 0
1.743962896064192E-5 0
-3.435318990934401E-3 0
7.189015711587609E-5 0
9.917695523226596E-4 0
2.449838136061038E-3 0
3.22225123892908E-3 0
1.2985458406345393E-2 0
-4.330890494699601E-3 0
6.166145524207788E-3 0
2.2549967134279938E-3 0
4.160996338025644E-3 0
-4.809244859230227E-3 0
4.302436174151264E-3 0
1.5259868716747125E-3 0
6.820386848776807E-3 0
-6.407838164288784E-3 0
1.3140752823217293E-2 0
1.3881366404957381E-3 0
2.6363643869863683E-3 0
6.253223478410087E-4 0
-1.156044975872396E-3 0
2.4482346996085955E-3 0
-3.638662121618038E-3 0
6.102219120322043E-4 0
-2.5762278157522656E-3 0
-2.361606770550023E-3 0
5.213820158066118E-4 0
-3.5409971775503153E-3 0
2.5902103652758264E-3 0
-1.1911073563296876E-3 0
8.408281996961238E-4 0
1.823447757233118E-3 0
-1.0192182177980718E-3 0
3.910040024897783E-4 0
-1.4729117899693683E-3 0
-3.5824910563745393E-3 0
8.50887278172238E-4 0
4.9225153418509415E-1 0
1.1763579291067402E-3 0
-3.8308536682043703E-3 0
-8.840492174848363E-4 0
3.733449818129713E-4 0
-8.28618598507511E-4 0
2.3217477471547173E-3 0
1.9235488862237307E-3 0
3.500034662546007E-4 0
-2.1754765392633654E-5 0
-3.634784027057521E-3 0
6.611748009894715E-5 0
-3.083055726980162E-3 0
-2.9756927775804777E-3 0
-3.3977319406222415E-5 0
-3.614309891759569E-3 0
-4.1969681819698674E-6 0
9.463780928440607E-4 0
2.7637198351400417E-3 0
3.0355590472636784E-3 0
1.2387651356483556E-2 0
-4.471793021878028E-3 0
6.392815795223456E-3 0
1.9636151624454327E-3 0
4.28626621078564E-3 0
-5.13732732549606E-3 0
4.394291681433587E-3 0
1.0499481837306444E-3 0
7.003360505613212E-3 0
-6.719614664773956E-3 0
1.2867971558413984E-2 0
-1.1723037309515742E-3 0
1.9681725034372028E-3 0
6.689560601699499E-4 0
-1.1691871781912607E-3 0
2.5779247169854E-3 0
-3.7003203525148146E-3 0
6.793278164327906E-4 0
-2.6504455790140814E-3 0
-2.534208695153162E-3 0
3.9947236023700743E-4 0
-3.8738147664578292E-3 0
2.5753969107064835E-3 0
-1.38243699861124E-3 0
7.275650314022868E-4 0
1.7892685166562854E-3 0
-7.948517213991378E-4 0
5.980416541057558E-4 0
-1.2111483255700195E-3 0
-3.6198189929041633E-3 0
1.1763579291067562E-3 0
4.919921285765586E-1 0
1.5520326867146707E-3 0
-4.127693675918053E-3 0
-7.233398244776947E-4 0
4.1436153882832015E-4 0
1.5938837363059545E-2 0
1.4395027110833622E-3 0
2.0048107902602484E-3 0
3.5908630376976634E-4 0
-4.399630468981611E-6 0
-3.5963536251484734E-3 0
1.1851775859302518E-4 0
-3.161101241383092E-3 0
-3.134044388425634E-3 0
-2.1020871097418792E-4 0
-4.092330719016998E-3 0
-1.4539880780522661E-5 0
1.0019099916570905E-3 0
2.749445910365663E-3 0
2.9194098702524343E-3 0
1.2789997823911135E-2 0
-4.879938134384505E-3 0
6.594519069160177E-3 0
1.5031618083776934E-3 0
4.38165024685053E-3 0
-5.531184087525088E-3 0
4.518969607066782E-3 0
6.370558729496055E-4 0
6.719489480612491E-3 0
-6.3587654013837576E-3 0
8.564021765956087E-4 0
-8.985808872246185E-4 0
2.003312697303103E-3 0
7.372663958564161E-4 0
-1.2487975177433795E-3 0
2.71228705056028E-3 0
-3.850910746238779E-3 0
6.534643545124888E-4 0
-2.7795864900858757E-3 0
-2.8235994536976307E-3 0
3.002063740885203E-4 0
-4.090663410446622E-3 0
2.7746951441287833E-3 0
-1.5993558751175995E-3 0
8.31435984495129E-4 0
2.110754771969473E-3 0
-7.1462395908031E-4 0
6.13163199422116E-4 0
-1.04985331208952E-3 0
-3.8308536682043555E-3 0
1.5520326867146715E-3 0
4.915748466102636E-1 0
2.019043791856238E-3 0
-4.368823885969144E-3 0
-8.95682122269177E-4 0
-8.140533137813736E-3 0
1.1871945203637605E-2 0
1.231892679130079E-3 0
2.0073136846651195E-3 0
4.648876985537969E-4 0
-8.3704796968612E-6 0
-3.6836757779811482E-3 0
8.301535086992875E-5 0
-3.3623512346155904E-3 0
-3.428942590228206E-3 0
-3.215359721673963E-4 0
-4.009367697523726E-3 0
4.618225818020966E-4 0
9.821319140948322E-4 0
2.898804950273997E-3 0
2.6077895932873105E-3 0
1.2791170015748114E-2 0
-5.5682498071098424E-3 0
6.798606486343454E-3 0
1.0301974791167901E-3 0
4.508369757076555E-3 0
-6.029657728161098E-3 0
4.797635818307775E-3 0
4.670993657474371E-4 0
6.480389183464523E-3 0
-1.6890684718640278E-3 0
7.353897271500396E-4 0
-9.491062808997001E-4 0
1.9939413513896933E-3 0
8.094287852856692E-4 0
-1.4183412554633575E-3 0
2.8298161362807737E-3 0
-4.047501016239946E-3 0
5.459238155627264E-4 0
-2.8526580319974803E-3 0
-3.073974767659186E-3 0
5.47164649256177E-4 0
-4.440993123949049E-3 0
2.7446155017809126E-3 0
-1.4411877591037426E-3 0
8.817491936364804E-4 0
2.1421217033166864E-3 0
-7.849346379976105E-4 0
5.069015831905675E-4 0
-8.840492174848248E-4 0
-4.127693675918046E-3 0
2.0190437918562337E-3 0
4.911082812628309E-1 0
2.3130518182441404E-3 0
-4.217070958108327E-3 0
8.220146593873207E-3 0
-6.347816247278127E-3 0
1.217189623093703E-2 0
1.1783125904522844E-3 0
1.8558082992659922E-3 0
5.373725537454982E-4 0
2.144502740808324E-5 0
-3.8416646950009715E-3 0
2.523454066838614E-5 0
-3.4652201788306844E-3 0
-3.631030585686322E-3 0
3.5902885901698594E-5 0
-4.111332032541759E-3 0
5.576865233752197E-4 0
9.824486684411153E-4 0
3.0173489993409524E-3 0
1.921243758370876E-3 0
1.297831813098905E-2 0
-6.424465564919046E-3 0
6.982743968206919E-3 0
6.212754274265281E-4 0
4.790519850471024E-3 0
-6.691691013440377E-3 0
5.078489839681614E-3 0
6.687841858497813E-4 0
-4.600195345660478E-3 0
-1.3713924011997524E-3 0
8.210670655128919E-4 0
-9.222992909955356E-4 0
1.9364928330512527E-3 0
9.224831421635215E-4 0
-1.5789898820292156E-3 0
2.8090491689706336E-3 0
-4.1060101647059965E-3 0
3.0148953798910455E-4 0
-2.8485638966840856E-3 0
-3.274727741902607E-3 0
6.440958406326728E-4 0
-4.564112849008349E-3 0
2.696094634841377E-3 0
-1.0951072513130694E-3 0
7.365487664506242E-4 0
2.142397563684326E-3 0
-8.257722172008655E-4 0
3.733449818129921E-4 0
-7.233398244777077E-4 0
-4.368823885969146E-3 0
2.3130518182441643E-3 0
4.9109117162251353E-1 0
1.7532473427493095E-3 0
1.5171609842825145E-3 0
6.15599647112059E-3 0
-6.52476456131107E-3 0
1.2017399803580232E-2 0
1.6303610006920633E-3 0
1.62697229216906E-3 0
4.900672296956967E-4 0
2.0430703088233686E-5 0
-3.977062195609028E-3 0
-8.089687102387939E-5 0
-3.3709873934756208E-3 0
-3.666053757058439E-3 0
3.064845577383952E-4 0
-3.975188650091109E-3 0
6.807767255914632E-4 0
9.879435537494523E-4 0
2.9055491110565965E-3 0
1.2891812682307626E-3 0
1.3130658487414593E-2 0
-6.7364658592216535E-3 0
6.704281848661443E-3 0
4.576651348924798E-4 0
5.07470760994317E-3 0
-6.960216200688424E-3 0
4.6377913522563305E-3 0
1.2135566265032286E-3 0
-3.356330887060123E-3 0
-1.458241927540861E-3 0
7.394157730993115E-4 0
-8.871352879553492E-4 0
1.936782081819531E-3 0
8.724665956262282E-4 0
-1.4767969442508317E-3 0
2.5900335096285905E-3 0
-4.02541229119802E-3 0
1.0479565481358476E-4 0
-2.8853537318757703E-3 0
-3.488152243130957E-3 0
2.930355668139387E-4 0
-4.1240197766003244E-3 0
2.552883585055717E-3 0
-1.1190608825056522E-3 0
6.353912049095865E-4 0
2.0829658588870544E-3 0
-8.286185985075217E-4 0
4.1436153882832557E-4 0
-8.956821222691799E-4 0
-4.217070958108322E-3 0
1.7532473427493182E-3 0
4.9144666152477273E-1 0
4.867912121072109E-3 0
1.467093273731604E-3 0
5.9418852075019245E-3 0
-5.970040725895844E-3 0
1.1770978906348687E-2 0
2.131523630735794E-3 0
1.706633742694739E-3 0
6.124604160261368E-4 0
-1.1838616397049222E-5 0
-3.876708526214814E-3 0
-1.1876974652661902E-4 0
-3.211481597875946E-3 0
-3.73349222293817E-3 0
1.3301526293915236E-4 0
-3.656516105307643E-3 0
3.6829742053552314E-4 0
7.591430671409952E-4 0
2.581308505954077E-3 0
1.383437434384303E-3 0
1.2858377998082397E-2 0
-6.3681874189897335E-3 0
6.473921087155201E-3 0
6.654929376400412E-4 0
4.636876645093834E-3 0
-6.204320583651722E-3 0
-9.101290082451738E-3 0
4.199073855883937E-3 0
2.603861966447253E-3 0
6.92028785527508E-3 0
-7.0143465178532155E-3 0
1.5103947871778326E-2 0
2.8825212558307844E-3 0
2.198233369217781E-3 0
1.065382492391202E-3 0
-8.86442294831115E-6 0
-4.718976218411397E-3 0
-5.65639461911372E-5 0
-4.531247546616102E-3 0
-4.531247546615991E-3 0
-4.741985825511248E-5 0
-4.7604965346774285E-3 0
9.57702735418798E-5 0
8.607441645274338E-4 0
2.550493040088601E-3 0
2.321747747154718E-3 0
1.593883736305953E-2 0
-8.140533137813733E-3 0
8.22014659387321E-3 0
1.517160984282509E-3 0
4.867912121072109E-3 0
5.834504340252189E-1 0
-2.0390160984857665E-2 0
2.5593620016215672E-2 0
7.17168364012794E-3 0
-8.03754075556963E-3 0
1.0347963127530762E-2 0
-1.5958999889557533E-2 0
-4.116808073363748E-3 0
1.3537031294812917E-2 0
-2.5358128178112293E-2 0
3.359072293462287E-2 0
-1.0016073610988033E-2 0
2.0876110875250698E-2 0
2.0876110875250632E-2 0
-1.0015090563494318E-2 0
3.358625923708101E-2 0
-2.5345349643044784E-2 0
1.350472669738399E-2 0
-4.046928399833604E-3 0
-1.6077435331332768E-2 0
1.0455629343193652E-2 0
-7.94119678804007E-3 0
6.2370768845504895E-3 0
2.741779908941964E-2 0
-2.2570420549220895E-2 0
4.199073855884451E-3 0
-4.863035197219711E-3 0
3.074198875790838E-3 0
1.9252407330355862E-3 0
5.08885554579339E-3 0
-5.0253848144763795E-3 0
1.113309381262957E-2 0
2.2752681117505203E-3 0
1.8516029594449076E-3 0
1.0319446919363159E-3 0
1.8977480210952385E-4 0
-3.3096261837820494E-3 0
-2.121076259081531E-5 0
-3.3808504380154537E-3 0
-3.201891734865564E-3 0
-8.389333433185909E-5 0
-3.6269486427347192E-3 0
-3.5541005377772464E-5 0
4.48544931017085E-4 0
1.9235488862237359E-3 0
1.4395027110833585E-3 0
1.1871945203637616E-2 0
-6.347816247278132E-3 0
6.155996471120588E-3 0
1.4670932737316038E-3 0
-2.039016098485765E-2 0
5.445263020819913E-1 0
-1.4798545763538503E-2 0
1.8757687363390164E-2 0
5.301107953666786E-3 0
-5.845881754356585E-3 0
7.557532484428061E-3 0
-1.1768452759926683E-2 0
-3.231353760335397E-3 0
9.537103429188879E-3 0
-1.8719581383052623E-2 0
2.470255853678578E-2 0
-7.291580622583611E-3 0
1.5539330722639697E-2 0
1.4506420960203246E-2 0
-7.304342928380331E-3 0
2.47645588009956E-2 0
-1.8392909645306064E-2 0
9.961196504447475E-3 0
-2.9635393806021967E-3 0
-1.1979958124555826E-2 0
8.035022187902094E-3 0
-6.591055333416408E-3 0
5.686734008576205E-3 0
1.9554377984053198E-2 0
2.6038619664465303E-3 0
3.0732807434466648E-3 0
-4.825250142334844E-3 0
3.12700865110997E-3 0
1.997483490142361E-3 0
5.18970271327215E-3 0
-4.883655589111803E-3 0
1.1325113728636338E-2 0
2.5214139831615874E-3 0
2.138446277502507E-3 0
1.3888111300091584E-3 0
4.975122551118764E-4 0
-3.459513083429763E-3 0
-2.446003313169349E-4 0
-3.4957637518822303E-3 0
-3.4486467340912267E-3 0
-1.9125764379563918E-4 0
-3.737191173697788E-3 0
-5.5426626490982085E-5 0
3.5000346625459623E-4 0
2.0048107902602484E-3 0
1.2318926791300751E-3 0
1.2171896230937031E-2 0
-6.524764561311077E-3 0
5.941885207501926E-3 0
2.5593620016215648E-2 0
-1.4798545763538487E-2 0
5.44575941663708E-1 0
-1.473649807888251E-2 0
1.881877418978469E-2 0
5.335433784996185E-3 0
-5.878193665732506E-3 0
7.416101963031763E-3 0
-1.206861993383456E-2 0
-3.63589144129522E-3 0
8.878203925852453E-3 0
-1.8876623350767903E-2 0
2.6325249838762853E-2 0
-7.529779286248597E-3 0
1.4903710754571831E-2 0
1.4943883507170767E-2 0
-7.49700031715533E-3 0
2.477807710498148E-2 0
-1.8780713012491165E-2 0
1.0039748165658557E-2 0
-3.1797152883334314E-3 0
-1.2152730885669928E-2 0
8.441365917058954E-3 0
-7.2124185354811455E-3 0
6.135225515467657E-3 0
6.920287855275804E-3 0
1.9220905016753566E-3 0
3.1233675959012413E-3 0
-4.760946541731382E-3 0
3.209802806786341E-3 0
2.108729938666786E-3 0
5.343268254345897E-3 0
-4.676579952852447E-3 0
1.1596981276676048E-2 0
2.8464024004499966E-3 0
2.456823075338202E-3 0
1.418769276198272E-3 0
2.1485287709254055E-4 0
-3.7375141835070728E-3 0
-3.538618853852399E-4 0
-3.4674852172896916E-3 0
-3.4045223788222428E-3 0
-1.6613964848949815E-4 0
-3.718576194528173E-3 0
-2.175476539263009E-5 0
3.5908630376976146E-4 0
2.0073136846651177E-3 0
1.1783125904522823E-3 0
1.2017399803580235E-2 0
-5.970040725895844E-3 0
7.171683640127951E-3 0
1.8757687363390153E-2 0
-1.473649807888248E-2 0
5.446489976161571E-1 0
-1.4666543058264779E-2 0
1.8860278455572768E-2 0
5.311499977177271E-3 0
-6.002238122939659E-3 0
7.148872862837597E-3 0
-1.2402787791055043E-2 0
-3.7188165950924504E-3 0
9.713124093602298E-3 0
-1.9139451759285102E-2 0
2.6176252943157372E-2 0
-7.237692602602864E-3 0
1.4318215388611725E-2 0
1.436087424355445E-2 0
-8.167894088674053E-3 0
2.4749247122337018E-2 0
-1.943826884729004E-2 0
1.0319892996141826E-2 0
-3.6176752547716277E-3 0
-1.2066804827424128E-2 0
8.312245021439218E-3 0
-6.77225618546416E-3 0
-7.014346517853729E-3 0
5.082621116630452E-3 0
1.9881617819347275E-3 0
3.2025445146834273E-3 0
-4.666614274251037E-3 0
3.327516514003466E-3 0
2.262723395907779E-3 0
5.544024440374221E-3 0
-4.409205425086483E-3 0
1.1924599956723275E-2 0
3.235197077236857E-3 0
2.6677328255785425E-3 0
1.4332903242889401E-3 0
1.1762560345909601E-5 0
-3.88347937321197E-3 0
-5.540010547976988E-4 0
-3.3921929080103137E-3 0
-3.2951912519531873E-3 0
-4.6025674665432015E-5 0
-3.6347840270575136E-3 0
-4.3996304689800105E-6 0
4.6488769855379476E-4 0
1.8558082992659955E-3 0
1.6303610006920646E-3 0
1.1770978906348685E-2 0
-8.03754075556962E-3 0
5.301107953666805E-3 0
1.8818774189784674E-2 0
-1.4666543058264777E-2 0
5.447204514719043E-1 0
-1.4607941606399104E-2 0
1.888485910236601E-2 0
5.2862527443519125E-3 0
-6.10643575846261E-3 0
7.039443029999665E-3 0
-1.265831129064429E-2 0
-3.604825608740904E-3 0
1.0565879160963638E-2 0
-1.9307714342868213E-2 0
2.506285142525151E-2 0
-6.907981971354501E-3 0
1.365965931549718E-2 0
1.3970692706114677E-2 0
-9.05018476678572E-3 0
2.4947842812432158E-2 0
-2.025788656023508E-2 0
1.1018624070671067E-2 0
-4.220935294602643E-3 0
-1.1579529536526079E-2 0
8.019179063066798E-3 0
1.5103947871778588E-2 0
-5.034391426717935E-3 0
5.174679820365901E-3 0
2.0929111702515275E-3 0
3.316970759101971E-3 0
-4.539050243544496E-3 0
3.4771277395595655E-3 0
2.4414888942603167E-3 0
5.769920632986592E-3 0
-4.154486794101291E-3 0
1.2316538089001091E-2 0
3.346090515066076E-3 0
2.5161946189552627E-3 0
1.2046606207520647E-3 0
-2.9663492556738114E-4 0
-3.972959310538778E-3 0
-3.094114488323819E-4 0
-3.1673098830421052E-3 0
-3.1382672059092494E-3 0
6.611748009894616E-5 0
-3.5963536251484747E-3 0
-8.370479696863836E-6 0
5.373725537455014E-4 0
1.6269722921690593E-3 0
2.1315236307357928E-3 0
1.0347963127530755E-2 0
-5.845881754356599E-3 0
5.335433784996187E-3 0
1.8860278455572758E-2 0
-1.4607941606399104E-2 0
5.448045270801004E-1 0
-1.4492256089124838E-2 0
1.904215420773697E-2 0
5.482294274692506E-3 0
-5.813875861619793E-3 0
7.425634690217386E-3 0
-1.1711589528240397E-2 0
-3.110913176572766E-3 0
1.0277547117061935E-2 0
-1.844669290265767E-2 0
2.4360671122478254E-2 0
-7.926976719689645E-3 0
1.2670473793810526E-2 0
1.3696475963512972E-2 0
-9.817753274586916E-3 0
2.555043983999733E-2 0
-2.127778562808969E-2 0
1.2230760293032479E-2 0
-5.119430535623679E-3 0
-1.160342121366081E-2 0
2.8825212558307076E-3 0
1.1123886863295313E-2 0
-4.900367416175532E-3 0
5.3225069652024E-3 0
2.2430034081431546E-3 0
3.4644416360476477E-3 0
-4.3914148376660075E-3 0
3.628911650755188E-3 0
2.6052439191236224E-3 0
5.90989133153299E-3 0
-4.064732570933975E-3 0
1.2058139959346563E-2 0
3.236707354137473E-3 0
2.603313163155827E-3 0
1.1322081471397195E-3 0
-1.2532505840477334E-4 0
-3.579934372256301E-3 0
-8.808887458992625E-5 0
-2.9957338429472177E-3 0
-3.0830557269801596E-3 0
1.1851775859303109E-4 0
-3.6836757779811482E-3 0
2.1445027408080514E-5 0
4.900672296956983E-4 0
1.7066337426947442E-3 0
-1.595899988955753E-2 0
7.5575324844280554E-3 0
-5.878193665732511E-3 0
5.31149997717728E-3 0
1.8884859102365998E-2 0
-1.4492256089124786E-2 0
5.45051485071349E-1 0
-1.4080429956198574E-2 0
1.964185581218151E-2 0
6.282880174577614E-3 0
-4.765511302517159E-3 0
8.400832897220553E-3 0
-1.1992856959489187E-2 0
-3.310961154457003E-3 0
9.234252380074272E-3 0
-1.934286321735669E-2 0
2.3273460217403313E-2 0
-8.668495740299558E-3 0
1.206239713053038E-2 0
1.3746532587023663E-2 0
-1.0345402749008829E-2 0
2.65662687192715E-2 0
-2.235668615325593E-2 0
1.3272847733269092E-2 0
-4.734806860699221E-3 0
2.1982333692177245E-3 0
2.270809704504305E-3 0
1.1315052016624038E-2 0
-4.693157250329004E-3 0
5.522217300799131E-3 0
2.4187116558717883E-3 0
3.6127227169135126E-3 0
-4.268582303289775E-3 0
3.7333255034020874E-3 0
2.668925779582621E-3 0
5.910947525313776E-3 0
-4.129477091104407E-3 0
1.278115657143548E-2 0
3.3899603042010346E-3 0
2.3662115762267937E-3 0
1.0303585212877427E-3 0
-1.583884907353668E-5 0
-3.441706313862949E-3 0
1.7439628960645034E-5 0
-2.975692777580473E-3 0
-3.1611012413830875E-3 0
8.30153508699326E-5 0
-3.8416646950009707E-3 0
2.0430703088238382E-5 0
6.124604160261407E-4 0
-4.116808073363743E-3 0
-1.1768452759926681E-2 0
7.416101963031762E-3 0
-6.002238122939656E-3 0
5.286252744351917E-3 0
1.904215420773699E-2 0
-1.4080429956198527E-2 0
5.45762188828192E-1 0
-1.3044417144794275E-2 0
2.0932389962177316E-2 0
7.457386008974039E-3 0
-4.253488006894132E-3 0
8.8465273155001E-3 0
-1.2279466769606173E-2 0
-3.7811325553121964E-3 0
8.43938736537309E-3 0
-2.0203495481930227E-2 0
2.272745330335176E-2 0
-9.060026601749932E-3 0
1.2112603358060149E-2 0
1.4091180976343752E-2 0
-1.0480648578324559E-2 0
2.7737846892290065E-2 0
-2.2471813931618068E-2 0
1.236950962720196E-2 0
1.065382492391293E-3 0
1.8584680798898667E-3 0
2.529809026276647E-3 0
1.1598081737823944E-2 0
-4.421440077037717E-3 0
5.744919453091882E-3 0
2.574071470861079E-3 0
3.707936148514806E-3 0
-4.2313844858158246E-3 0
3.6828709445621685E-3 0
2.5862752284438032E-3 0
5.761894070545644E-3 0
-4.360989018308928E-3 0
1.3043362153254051E-2 0
3.2156560417673425E-3 0
2.209540031853643E-3 0
1.0518585992031718E-3 0
8.097201463734494E-5 0
-3.435318990934402E-3 0
-3.3977319406223276E-5 0
-3.134044388425637E-3 0
-3.3623512346155904E-3 0
2.5234540668393963E-5 0
-3.977062195609034E-3 0
-1.1838616397053212E-5 0
1.3537031294812906E-2 0
-3.2313537603353973E-3 0
-1.2068619933834568E-2 0
7.148872862837593E-3 0
-6.106435758462608E-3 0
5.482294274692497E-3 0
1.9641855812181475E-2 0
-1.3044417144794316E-2 0
5.472361397799602E-1 0
-1.1294108874171175E-2 0
2.3054643016425937E-2 0
8.84476719223127E-3 0
-4.314827319284604E-3 0
8.52733461156554E-3 0
-1.319690872070982E-2 0
-5.812461633178265E-3 0
7.569039482617166E-3 0
-2.0817532443459304E-2 0
2.3022762749086968E-2 0
-9.114543951628631E-3 0
1.2898727217921247E-2 0
1.4492262946809947E-2 0
-1.0160387447770458E-2 0
2.778012612276144E-2 0
-2.1004089317509616E-2 0
-8.86442294835645E-6 0
1.045432337212918E-3 0
2.1590844404596643E-3 0
2.8585840719650146E-3 0
1.1916928330331082E-2 0
-4.179712542722319E-3 0
5.873767070392352E-3 0
2.629535176378796E-3 0
3.663897414358745E-3 0
-4.464097147993571E-3 0
3.3057694454906817E-3 0
2.3329978809584007E-3 0
6.3129521039418735E-3 0
-3.929241082878645E-3 0
1.248173488432388E-2 0
3.2686154439772633E-3 0
2.3420005730300417E-3 0
1.0481036832551758E-3 0
7.189015711587663E-5 0
-3.6143098917595703E-3 0
-2.1020871097418933E-4 0
-3.428942590228213E-3 0
-3.4652201788306926E-3 0
-8.089687102387667E-5 0
-3.8767085262148148E-3 0
-2.535812817811229E-2 0
9.537103429188884E-3 0
-3.6358914412952287E-3 0
-1.2402787791055038E-2 0
7.039443029999663E-3 0
-5.813875861619794E-3 0
6.28288017457762E-3 0
2.0932389962177323E-2 0
-1.1294108874171184E-2 0
5.492458346981811E-1 0
-9.454201864910253E-3 0
2.3309018376610254E-2 0
8.83841197173966E-3 0
-4.50658127678277E-3 0
6.739508889271194E-3 0
-1.42466124542826E-2 0
-6.148957697927146E-3 0
7.843473742548455E-3 0
-2.0813759458730322E-2 0
2.418624934281925E-2 0
-8.95170734801747E-3 0
1.4423223602954003E-2 0
1.4545512419246958E-2 0
-8.691982776159225E-3 0
2.6894185893941738E-2 0
-4.718976218411471E-3 0
1.9939426014943144E-4 0
1.3716170918092298E-3 0
2.4705505863882055E-3 0
3.1842904063279403E-3 0
1.2281124503235893E-2 0
-4.070972340632717E-3 0
5.874069822011161E-3 0
2.612867430720053E-3 0
3.334145589259312E-3 0
-4.853535117117029E-3 0
3.3450455419840167E-3 0
2.961950856037074E-3 0
6.934015819272012E-3 0
-3.30762881220692E-3 0
1.2691009464779347E-2 0
3.22278031632735E-3 0
2.225539567447354E-3 0
9.91769552322659E-4 0
-4.1969681819705645E-6 0
-4.0923307190169995E-3 0
-3.215359721673964E-4 0
-3.6310305856863175E-3 0
-3.370987393475624E-3 0
-1.1876974652662627E-4 0
3.359072293462288E-2 0
-1.8719581383052637E-2 0
8.878203925852457E-3 0
-3.7188165950924447E-3 0
-1.2658311290644294E-2 0
7.425634690217385E-3 0
-4.765511302517156E-3 0
7.457386008974052E-3 0
2.3054643016425964E-2 0
-9.45420186491024E-3 0
5.513945448597006E-1 0
-8.343966872999063E-3 0
2.41935671738356E-2 0
8.8549426459751E-3 0
-6.261080175849601E-3 0
4.804289960042541E-3 0
-1.408515368240801E-2 0
-6.237468537389171E-3 0
9.223567517843678E-3 0
-2.055718764770088E-2 0
2.6003676485088785E-2 0
-8.814864510125794E-3 0
1.5934520349360475E-2 0
1.4198544582457064E-2 0
-7.577925588920989E-3 0
-5.6563946190915875E-5 0
-3.334863753412209E-3 0
3.575832690421557E-4 0
1.37182052716905E-3 0
2.511460854989492E-3 0
3.2740987818457453E-3 0
1.2096219677496746E-2 0
-4.114210449285541E-3 0
5.958590979076802E-3 0
2.5021384668539094E-3 0
3.5645260552815837E-3 0
-4.190250423367135E-3 0
4.321033630831284E-3 0
3.6214207590670043E-3 0
6.7315694491830004E-3 0
-3.5380845850266768E-3 0
1.2343635160355965E-2 0
2.958603388040159E-3 0
2.4498381360610424E-3 0
9.463780928440655E-4 0
-1.4539880780524938E-5 0
-4.0093676975237295E-3 0
3.5902885901701426E-5 0
-3.666053757058433E-3 0
-3.2114815978759414E-3 0
-1.0016073610988057E-2 0
2.470255853678579E-2 0
-1.8876623350767903E-2 0
9.713124093602291E-3 0
-3.604825608740915E-3 0
-1.1711589528240394E-2 0
8.400832897220559E-3 0
-4.253488006894127E-3 0
8.844767192231253E-3 0
2.330901837661025E-2 0
-8.343966872999E-3 0
5.515767034886427E-1 0
-9.40650651384413E-3 0
2.5277570629557378E-2 0
7.066385274207598E-3 0
-6.1983388626335725E-3 0
6.543790041033452E-3 0
-1.2780289201078534E-2 0
-4.5376483441231415E-3 0
1.0488274909212803E-2 0
-2.03808110675967E-2 0
2.776132675353779E-2 0
-1.0474564984097696E-2 0
1.7712324609383292E-2 0
1.4121333491688436E-2 0
-4.531247546616396E-3 0
-5.0663443760274945E-5 0
-3.5771601436792437E-3 0
1.5786941806543342E-4 0
1.3170398868811177E-3 0
2.4639325605933823E-3 0
3.2653260558459605E-3 0
1.2814768004017454E-2 0
-4.193477597768895E-3 0
6.459601004989543E-3 0
3.196706550551377E-3 0
4.520391785498844E-3 0
-3.925030505096858E-3 0
4.904467724389705E-3 0
3.417867699304837E-3 0
6.718307818464406E-3 0
-4.122743505107056E-3 0
1.2961994265401323E-2 0
3.222251238929084E-3 0
2.7637198351400465E-3 0
1.0019099916570868E-3 0
4.6182258180210137E-4 0
-4.111332032541765E-3 0
3.0648455773838763E-4 0
-3.7334922229381754E-3 0
2.0876110875250705E-2 0
-7.2915806225836086E-3 0
2.6325249838762856E-2 0
-1.913945175928511E-2 0
1.0565879160963644E-2 0
-3.110913176572768E-3 0
-1.1992856959489187E-2 0
8.846527315500098E-3 0
-4.314827319284609E-3 0
8.838411971739664E-3 0
2.4193567173835598E-2 0
-9.406506513844129E-3 0
5.572826892371087E-1 0
-9.014479699403955E-3 0
2.528984872222458E-2 0
8.799191837994078E-3 0
-4.361846250518212E-3 0
8.224007492133636E-3 0
-1.1697744257620412E-2 0
-4.3668208399985095E-3 0
1.2103907923169508E-2 0
-2.218580188545208E-2 0
3.0219648077301257E-2 0
-1.162307674784549E-2 0
1.8253891266128083E-2 0
-4.531247546615695E-3 0
-3.3513977568461035E-3 0
-1.2695327106731512E-4 0
-3.6805307244801018E-3 0
1.2801299775382083E-4 0
1.256922679113911E-3 0
2.5746944614473606E-3 0
3.3563488716190555E-3 0
1.2875850732714019E-2 0
-4.075889983926302E-3 0
6.69926012475772E-3 0
3.422062604399434E-3 0
4.904467724389705E-3 0
-3.925030505096836E-3 0
4.52592984500379E-3 0
3.171560031428551E-3 0
6.521228332168269E-3 0
-4.305666637055696E-3 0
1.298545840634539E-2 0
3.0355590472636723E-3 0
2.7494459103656705E-3 0
9.821319140948317E-4 0
5.57686523375221E-4 0
-3.97518865009111E-3 0
1.3301526293915097E-4 0
2.087611087525064E-2 0
1.5539330722639695E-2 0
-7.529779286248594E-3 0
2.6176252943157383E-2 0
-1.930771434286821E-2 0
1.0277547117061936E-2 0
-3.310961154457002E-3 0
-1.2279466769606175E-2 0
8.527334611565537E-3 0
-4.506581276782775E-3 0
8.854942645975111E-3 0
2.527757062955738E-2 0
-9.014479699403952E-3 0
5.572826892371087E-1 0
-9.410773625048522E-3 0
2.4212942731899785E-2 0
8.78495207564877E-3 0
-4.188129074508498E-3 0
8.561116724515542E-3 0
-1.138459028735124E-2 0
-4.341117181456266E-3 0
1.2788075573626581E-2 0
-2.277700400244717E-2 0
3.04774988264483E-2 0
-9.707636542679386E-3 0
-4.741985825528977E-5 0
-3.1766535809040187E-3 0
-3.3558344150383195E-3 0
-3.069117206388206E-4 0
-3.7272072896772047E-3 0
-2.246428462225319E-4 0
1.0941289636598492E-3 0
2.350943919870633E-3 0
3.018958297462565E-3 0
1.2312592845810617E-2 0
-3.5271152078300166E-3 0
6.731553746135973E-3 0
3.6172143092178042E-3 0
4.3265832350908385E-3 0
-4.203474933969585E-3 0
3.6022947967820013E-3 0
2.420071622008281E-3 0
6.102301660307167E-3 0
-4.330890494699608E-3 0
1.2387651356483552E-2 0
2.9194098702524343E-3 0
2.8988049502739898E-3 0
9.824486684411095E-4 0
6.807767255914578E-4 0
-3.656516105307649E-3 0
-1.001509056349432E-2 0
1.4506420960203235E-2 0
1.4903710754571831E-2 0
-7.2376926026028665E-3 0
2.50628514252515E-2 0
-1.844669290265768E-2 0
9.234252380074264E-3 0
-3.781132555312194E-3 0
-1.319690872070981E-2 0
6.739508889271195E-3 0
-6.261080175849599E-3 0
7.066385274207608E-3 0
2.5289848722224572E-2 0
-9.410773625048522E-3 0
5.51575678480482E-1 0
-8.342430844462206E-3 0
2.3313259703722035E-2 0
8.822167735854857E-3 0
-4.180827088998151E-3 0
8.202000368705512E-3 0
-1.1201626704625519E-2 0
-4.723238241109687E-3 0
1.1997562435513249E-2 0
-2.1904881166124386E-2 0
2.7615113047484968E-2 0
-4.7604965346774025E-3 0
-9.351544562970225E-5 0
-3.4314542886424875E-3 0
-3.4812191566489363E-3 0
-5.03094896738451E-4 0
-3.937547296411936E-3 0
-1.1908771646924348E-4 0
1.0672408312728256E-3 0
2.182951624552415E-3 0
3.2402458960713886E-3 0
1.2691036174497895E-2 0
-3.3185327693221844E-3 0
6.953115933938084E-3 0
2.9367519159548563E-3 0
3.3827370987520038E-3 0
-4.923516499484301E-3 0
3.4577785437313866E-3 0
2.4147166595333215E-3 0
6.166145524207778E-3 0
-4.471793021878033E-3 0
1.2789997823911131E-2 0
2.607789593287312E-3 0
3.0173489993409568E-3 0
9.879435537494556E-4 0
3.682974205355173E-4 0
3.358625923708102E-2 0
-7.304342928380334E-3 0
1.4943883507170765E-2 0
1.4318215388611718E-2 0
-6.907981971354508E-3 0
2.4360671122478257E-2 0
-1.9342863217356676E-2 0
8.439387365373087E-3 0
-5.812461633178276E-3 0
-1.424661245428261E-2 0
4.804289960042546E-3 0
-6.198338862633581E-3 0
8.799191837994082E-3 0
2.4212942731899792E-2 0
-8.34243084446221E-3 0
5.514017289775142E-1 0
-9.496702597895935E-3 0
2.3143246055644606E-2 0
7.339837641407112E-3 0
-4.655130993074831E-3 0
7.327865470740194E-3 0
-1.2488581534526814E-2 0
-4.343194697896299E-3 0
1.0008553074803292E-2 0
-2.0387528432810942E-2 0
9.577027354199625E-5 0
-3.6404298371766593E-3 0
-2.1189189488354877E-4 0
-3.4166884197887166E-3 0
-3.384519960637451E-3 0
-2.841818248107332E-4 0
-3.5438041955243656E-3 0
2.354058186427685E-5 0
1.070822840154758E-3 0
2.341984502045275E-3 0
3.2510985390133726E-3 0
1.2512620729864655E-2 0
-3.9762100540962336E-3 0
6.374694881157433E-3 0
2.251084600036939E-3 0
3.4294669162037677E-3 0
-4.648716105536832E-3 0
3.9299683055305235E-3 0
2.254996713427997E-3 0
6.392815795223458E-3 0
-4.879938134384495E-3 0
1.2791170015748098E-2 0
1.921243758370867E-3 0
2.90554911105659E-3 0
7.591430671410034E-4 0
-2.534534964304478E-2 0
2.4764558800995602E-2 0
-7.497000317155333E-3 0
1.4360874243554447E-2 0
1.3659659315497187E-2 0
-7.926976719689654E-3 0
2.327346021740332E-2 0
-2.0203495481930227E-2 0
7.569039482617154E-3 0
-6.148957697927146E-3 0
-1.4085153682408006E-2 0
6.543790041033441E-3 0
-4.361846250518207E-3 0
8.784952075648767E-3 0
2.3313259703722045E-2 0
-9.496702597895949E-3 0
5.494119571717208E-1 0
-1.1629833200079903E-2 0
2.14031016351584E-2 0
5.800929885065194E-3 0
-5.507032956885749E-3 0
7.070836226810466E-3 0
-1.2700837140985344E-2 0
-3.3745959815596163E-3 0
9.958692096319702E-3 0
8.607441645271827E-4 0
-4.2417615602594444E-5 0
-3.7455933797679642E-3 0
-1.6726795700256514E-4 0
-3.282959320021717E-3 0
-3.142315874802414E-3 0
-5.6927027185972656E-5 0
-3.416297198003521E-3 0
8.098887009481597E-5 0
1.0291589487462615E-3 0
2.2522001570935016E-3 0
3.1554855149590537E-3 0
1.3129651849033759E-2 0
-4.473324220688134E-3 0
5.905418696569669E-3 0
2.388059869607085E-3 0
3.948903742301517E-3 0
-4.577997252641494E-3 0
4.160996338025651E-3 0
1.9636151624454314E-3 0
6.594519069160159E-3 0
-5.568249807109826E-3 0
1.2978318130989059E-2 0
1.2891812682307685E-3 0
2.5813085059540677E-3 0
1.3504726697383973E-2 0
-1.839290964530605E-2 0
2.4778077104981477E-2 0
-8.167894088674061E-3 0
1.3970692706114686E-2 0
1.267047379381053E-2 0
-8.66849574029957E-3 0
2.2727453303351755E-2 0
-2.08175324434593E-2 0
7.843473742548467E-3 0
-6.23746853738917E-3 0
-1.2780289201078541E-2 0
8.224007492133641E-3 0
-4.188129074508492E-3 0
8.822167735854859E-3 0
2.314324605564462E-2 0
-1.1629833200079915E-2 0
5.479416777499039E-1 0
-1.4113712928354812E-2 0
2.0912202316685367E-2 0
4.3304273306056925E-3 0
-5.470059724408046E-3 0
7.389418222478864E-3 0
-1.2955456667963798E-2 0
-2.851606590220895E-3 0
2.5504930400889058E-3 0
4.5302009609414745E-4 0
-4.535390666362034E-5 0
-3.7019582103823396E-3 0
-2.4213440236639088E-5 0
-3.1154786151845098E-3 0
-2.9795291317207097E-3 0
1.7411249716740626E-5 0
-3.4607338944051976E-3 0
3.245701162529289E-5 0
9.549042516304384E-4 0
2.465127292642977E-3 0
3.2558407983239615E-3 0
1.2951868846950524E-2 0
-4.346180661808779E-3 0
6.203015413374094E-3 0
2.294418726456034E-3 0
4.1864309537067105E-3 0
-4.809244859230205E-3 0
4.2862662107856315E-3 0
1.5031618083777127E-3 0
6.79860648634344E-3 0
-6.4244655649190385E-3 0
1.3130658487414588E-2 0
1.3834374343843167E-3 0
-4.0469283998336E-3 0
9.961196504447463E-3 0
-1.8780713012491165E-2 0
2.4749247122337018E-2 0
-9.050184766785718E-3 0
1.3696475963512976E-2 0
1.2062397130530388E-2 0
-9.060026601749932E-3 0
2.3022762749086965E-2 0
-2.0813759458730336E-2 0
9.223567517843695E-3 0
-4.537648344123145E-3 0
-1.169774425762042E-2 0
8.561116724515544E-3 0
-4.180827088998153E-3 0
7.3398376414071115E-3 0
2.14031016351584E-2 0
-1.4113712928354812E-2 0
5.47519140911768E-1 0
-1.640503271191256E-2 0
2.1581168146629907E-2 0
3.0808482446087753E-3 0
-4.8334771480563355E-3 0
7.445658351280131E-3 0
-1.270170962947484E-2 0
2.3217477471544597E-3 0
1.9327347743538226E-3 0
3.667002815957452E-4 0
-1.044948045744193E-6 0
-3.615073086058775E-3 0
7.878699414964264E-5 0
-3.0830767074178284E-3 0
-2.9918471411921428E-3 0
-6.511535267122682E-5 0
-3.650379348232591E-3 0
-1.0733744666755116E-5 0
9.83696509306613E-4 0
2.7918874820788016E-3 0
3.007391400324922E-3 0
1.235033346338928E-2 0
-4.465258621837687E-3 0
6.428891048233952E-3 0
1.994742778571649E-3 0
4.302436174151256E-3 0
-5.13732732549609E-3 0
4.381650246850504E-3 0
1.0301974791167862E-3 0
6.9827439682069005E-3 0
-6.736465859221649E-3 0
1.2858377998082404E-2 0
-1.6077435331332754E-2 0
-2.963539380602197E-3 0
1.003974816565855E-2 0
-1.9438268847290035E-2 0
2.494784281243215E-2 0
-9.817753274586909E-3 0
1.3746532587023672E-2 0
1.2112603358060157E-2 0
-9.11454395162864E-3 0
2.4186249342819252E-2 0
-2.055718764770089E-2 0
1.0488274909212813E-2 0
-4.366820839998509E-3 0
-1.1384590287351243E-2 0
8.202000368705513E-3 0
-4.655130993074831E-3 0
5.800929885065199E-3 0
2.091220231668537E-2 0
-1.6405032711912546E-2 0
5.484520415223051E-1 0
-1.8697424162183736E-2 0
2.3290618178344578E-2 0
1.7014495130035251E-3 0
-3.910469587638173E-3 0
7.438755705072589E-3 0
1.5938837363059673E-2 0
1.4485328243488513E-3 0
2.019852675502815E-3 0
3.7496391640370495E-4 0
6.1623700369340925E-6 0
-3.596328860378793E-3 0
1.058592514518401E-4 0
-3.183914365991304E-3 0
-3.15909036921703E-3 0
-2.3550234066011067E-4 0
-4.1267941406459415E-3 0
-8.405503547308335E-5 0
9.512169156102946E-4 0
2.800138986412465E-3 0
2.988925397472163E-3 0
1.2824459554015904E-2 0
-4.854640344547083E-3 0
6.619557404449898E-3 0
1.5259868716747203E-3 0
4.39429168143358E-3 0
-5.531184087525095E-3 0
4.508369757076541E-3 0
6.212754274265268E-4 0
6.704281848661431E-3 0
-6.368187418989748E-3 0
1.0455629343193636E-2 0
-1.1979958124555833E-2 0
-3.1797152883334297E-3 0
1.0319892996141826E-2 0
-2.025788656023507E-2 0
2.5550439839997316E-2 0
-1.0345402749008822E-2 0
1.4091180976343747E-2 0
1.2898727217921246E-2 0
-8.951707348017488E-3 0
2.6003676485088785E-2 0
-2.0380811067596698E-2 0
1.2103907923169507E-2 0
-4.34111718145626E-3 0
-1.1201626704625512E-2 0
7.327865470740204E-3 0
-5.507032956885755E-3 0
4.330427330605701E-3 0
2.1581168146629904E-2 0
-1.8697424162183753E-2 0
5.506292270002743E-1 0
-2.1534954166052715E-2 0
2.5679909511436266E-2 0
3.9874065670208564E-4 0
-4.248588546213232E-3 0
-8.140533137813738E-3 0
1.1878155974896727E-2 0
1.2411915036320198E-3 0
2.014508968683088E-3 0
4.6485899017557094E-4 0
-1.8955007025551565E-5 0
-3.703434206424104E-3 0
6.123881690099215E-5 0
-3.374525502280229E-3 0
-3.4365235418634733E-3 0
-3.7448297023679204E-4 0
-4.171030293113277E-3 0
3.4208343762623253E-4 0
1.1018710582707007E-3 0
3.060467608092698E-3 0
2.6607363087944227E-3 0
1.2798751735972518E-2 0
-5.556077312768353E-3 0
6.820386848776794E-3 0
1.0499481837306594E-3 0
4.518969607066764E-3 0
-6.029657728161074E-3 0
4.790519850471027E-3 0
4.5766513489248943E-4 0
6.473921087155205E-3 0
-7.941196788040067E-3 0
8.035022187902096E-3 0
-1.2152730885669932E-2 0
-3.6176752547716386E-3 0
1.1018624070671067E-2 0
-2.1277785628089685E-2 0
2.656626871927149E-2 0
-1.0480648578324554E-2 0
1.4492262946809938E-2 0
1.4423223602953996E-2 0
-8.81486451012579E-3 0
2.7761326753537797E-2 0
-2.2185801885452085E-2 0
1.2788075573626573E-2 0
-4.7232382411096846E-3 0
-1.2488581534526809E-2 0
7.070836226810475E-3 0
-5.470059724408051E-3 0
3.0808482446087857E-3 0
2.329061817834456E-2 0
-2.1534954166052705E-2 0
5.539333513219774E-1 0
-2.5011017498394926E-2 0
2.7570275197075143E-2 0
1.624227567958739E-3 0
8.22014659387314E-3 0
-6.344640969648216E-3 0
1.217557339950448E-2 0
1.1783972482944166E-3 0
1.8486280681293044E-3 0
5.216530600977399E-4 0
7.746523606714582E-7 0
-3.858249311287568E-3 0
2.620866878478794E-5 0
-3.4532592976115545E-3 0
-3.6138665957477253E-3 0
-1.452993952763364E-6 0
-4.161936446878758E-3 0
6.082909377122074E-4 0
1.01980604411961E-3 0
3.0001782173540693E-3 0
1.9092993839554494E-3 0
1.2977314634920563E-2 0
-6.407838164288779E-3 0
7.003360505613206E-3 0
6.370558729496139E-4 0
4.797635818307738E-3 0
-6.6916910134404125E-3 0
5.074707609943165E-3 0
6.654929376400481E-4 0
6.237076884550504E-3 0
-6.591055333416404E-3 0
8.441365917058954E-3 0
-1.2066804827424133E-2 0
-4.220935294602633E-3 0
1.2230760293032474E-2 0
-2.235668615325592E-2 0
2.7737846892290054E-2 0
-1.0160387447770458E-2 0
1.4545512419246965E-2 0
1.5934520349360482E-2 0
-1.04745649840977E-2 0
3.0219648077301257E-2 0
-2.277700400244717E-2 0
1.1997562435513249E-2 0
-4.343194697896294E-3 0
-1.2700837140985346E-2 0
7.389418222478864E-3 0
-4.833477148056342E-3 0
1.7014495130035323E-3 0
2.5679909511436255E-2 0
-2.5011017498394877E-2 0
5.576878037030534E-1 0
-2.714344182245924E-2 0
2.6223263084915873E-2 0
1.5171609842826222E-3 0
6.156889784531908E-3 0
-6.524813689855357E-3 0
1.2013652834555435E-2 0
1.6209057544877368E-3 0
1.6117811406688354E-3 0
4.7320365063544396E-4 0
1.0345107365229166E-5 0
-3.968468773194192E-3 0
-5.9883059667823887E-5 0
-3.391986515982667E-3 0
-3.817273995891724E-3 0
1.811496139427424E-4 0
-3.8498537062954578E-3 0
8.319972301135003E-4 0
1.0089414698506325E-3 0
2.8845382793417475E-3 0
1.2805823081501872E-3 0
1.3140752823217292E-2 0
-6.719614664773964E-3 0
6.719489480612486E-3 0
4.6709936574744693E-4 0
5.0784898396816144E-3 0
-6.960216200688435E-3 0
4.636876645093858E-3 0
2.7417799089419614E-2 0
5.686734008576198E-3 0
-7.2124185354811455E-3 0
8.312245021439221E-3 0
-1.1579529536526075E-2 0
-5.119430535623675E-3 0
1.3272847733269092E-2 0
-2.2471813931618057E-2 0
2.778012612276145E-2 0
-8.691982776159238E-3 0
1.4198544582457076E-2 0
1.77123246093833E-2 0
-1.1623076747845486E-2 0
3.0477498826448308E-2 0
-2.1904881166124386E-2 0
1.0008553074803294E-2 0
-3.374595981559615E-3 0
-1.2955456667963787E-2 0
7.44565835128011E-3 0
-3.910469587638141E-3 0
3.9874065670207534E-4 0
2.7570275197075136E-2 0
-2.7143441822459216E-2 0
5.577439271073774E-1 0
-2.3221597167219304E-2 0
4.867912121072069E-3 0
1.467105227971881E-3 0
5.940944188701813E-3 0
-5.973305036536104E-3 0
1.1764484917768827E-2 0
2.1221275953227045E-3 0
1.697016744343556E-3 0
6.077799331310252E-4 0
-4.714954602189304E-6 0
-3.8627103213625833E-3 0
-1.0682525777971894E-4 0
-3.2325340966876167E-3 0
-3.7607118221627263E-3 0
1.6023486216370388E-4 0
-3.635462951055176E-3 0
3.563499556460766E-4 0
7.451520950875709E-4 0
2.5741719767709602E-3 0
1.3881366404957466E-3 0
1.2867971558413982E-2 0
-6.358765401383753E-3 0
6.480389183464509E-3 0
6.687841858497945E-4 0
4.637791352256342E-3 0
-6.2043205836517E-3 0
-2.2570420549220874E-2 0
1.95543779840532E-2 0
6.135225515467648E-3 0
-6.772256185464161E-3 0
8.019179063066798E-3 0
-1.1603421213660814E-2 0
-4.734806860699217E-3 0
1.2369509627201968E-2 0
-2.1004089317509612E-2 0
2.6894185893941745E-2 0
-7.577925588920995E-3 0
1.4121333491688438E-2 0
1.8253891266128076E-2 0
-9.70763654267939E-3 0
2.761511304748496E-2 0
-2.0387528432810945E-2 0
9.958692096319692E-3 0
-2.8516065902209013E-3 0
-1.2701709629474839E-2 0
7.438755705072588E-3 0
-4.248588546213241E-3 0
1.624227567958765E-3 0
2.6223263084915856E-2 0
-2.3221597167219287E-2 0
5.540318883576534E-1 0
