%%MatrixMarket matrix array complex general
%
50 50
4.7163186699766735E-1 0
5.275428820195308E-3 0
4.6037643624301044E-4 0
8.269613398704932E-4 0
2.490750902640277E-3 0
-6.864046369776021E-3 0
-2.7065033086016523E-3 0
2.4645809330276344E-3 0
1.0556814095731828E-3 0
-3.020413399432202E-4 0
-1.9266695730535828E-4 0
-1.7756633602344813E-5 0
1.4679807124829257E-4 0
1.4679807124829767E-4 0
-1.935442858517228E-5 0
-1.8541189223176017E-4 0
-3.2044841120824967E-4 0
1.0922722469876311E-3 0
2.400419957473316E-3 0
-2.6036705433554255E-3 0
-7.010676525394728E-3 0
2.664399986375347E-3 0
7.097663354222386E-4 0
4.532933631253579E-4 0
5.5974160761814076E-3 0
1.4397642770533818E-2 0
-5.016225720417998E-3 0
1.4027126921618081E-2 0
-5.3132509007862245E-3 0
1.4535484276809224E-2 0
7.143946187922034E-3 0
-1.1832639008929838E-2 0
-3.7903552232371445E-3 0
2.573478462187666E-3 0
9.550553297714929E-4 0
-2.8528243383953926E-4 0
-1.9227195789829477E-4 0
-7.377280421158097E-5 0
-7.377280421155922E-5 0
-1.9450334390791593E-4 0
-2.751504388851714E-4 0
9.275574439048359E-4 0
2.636648863581186E-3 0
-3.928772709920224E-3 0
-1.154082490553951E-2 0
6.549714366262695E-3 0
1.5624518514099836E-2 0
-7.120309912767958E-3 0
1.6103860219602976E-2 0
-6.3010197138658E-3 0
5.275428820195305E-3 0
4.8493230525892594E-1 0
3.8346745785149488E-3 0
3.213767886558828E-4 0
5.84242281319606E-4 0
1.7961576928487825E-3 0
-5.017617710905821E-3 0
-1.9995914444654837E-3 0
1.7495404842659777E-3 0
7.465231450117462E-4 0
-2.2249970331348452E-4 0
-1.534680792397332E-4 0
-2.7186365774352667E-5 0
-5.220113729929135E-6 0
1.4489727606875E-5 0
-4.847077099833739E-6 0
-1.2497266543884793E-4 0
-2.182837314022805E-4 0
8.187639016674254E-4 0
1.7164311337252713E-3 0
-1.8232713256906233E-3 0
-5.18698109051236E-3 0
2.099289775996655E-3 0
3.750947532411557E-4 0
4.5437109965660915E-4 0
-5.01622572041902E-3 0
7.658788118826421E-3 0
-3.6284718569336008E-3 0
1.0259407756873458E-2 0
-3.8219482880638665E-3 0
1.0653044894871453E-2 0
5.25266157232556E-3 0
-8.620388452757928E-3 0
-2.7416028095580613E-3 0
1.962918943336681E-3 0
7.687316079352452E-4 0
-1.4195670439617043E-4 0
-8.461943745915592E-5 0
1.9608276730740952E-5 0
-1.57147841249004E-5 0
-1.312215105584414E-4 0
-1.965098606128331E-4 0
7.094630766109592E-4 0
1.9075699248004715E-3 0
-2.854998766615899E-3 0
-8.569151873440086E-3 0
4.800393502193182E-3 0
1.1364908354647272E-2 0
-4.999063174655962E-3 0
1.1340961995696376E-2 0
4.603764362430081E-4 0
3.834674578514951E-3 0
4.8491842800591667E-1 0
3.8167612801301E-3 0
2.9950039186791633E-4 0
5.57731312893952E-4 0
1.7640425640940596E-3 0
-5.055346864855475E-3 0
-2.0362180860604134E-3 0
1.725393221138251E-3 0
7.417650906606043E-4 0
-2.2592466426749435E-4 0
-1.6864091314551971E-4 0
-9.744421634646875E-6 0
-2.661284084992525E-7 0
7.210255140324922E-6 0
2.1515149804631465E-5 0
-8.224383392089635E-5 0
-1.8376984656018715E-4 0
8.440172709984931E-4 0
1.7155350619375389E-3 0
-1.7631742656713776E-3 0
-5.2812595981761275E-3 0
2.201496885452219E-3 0
4.6334086618026946E-4 0
1.4027126921619632E-2 0
-3.6287379745420126E-3 0
7.697440730142094E-3 0
-3.579900873591502E-3 0
1.0315278624851128E-2 0
-3.7619507638268174E-3 0
1.0712374912706654E-2 0
5.303620265560836E-3 0
-8.586661879522757E-3 0
-2.730002987128908E-3 0
1.9971290231777603E-3 0
7.990671754574614E-4 0
-1.7765606985401054E-4 0
-1.204929220853214E-4 0
-1.691226273846608E-5 0
-2.6566353333104677E-5 0
-1.017403678943792E-4 0
-2.489327899738996E-4 0
6.956808137334662E-4 0
1.768316583930207E-3 0
-2.7650607723849457E-3 0
-8.834774768066255E-3 0
5.0153091056973735E-3 0
1.0957699317860604E-2 0
-4.374759755604258E-3 0
8.269613398704873E-4 0
3.213767886558816E-4 0
3.816761280130078E-3 0
4.848960468366597E-1 0
3.789448901793954E-3 0
2.661185269140491E-4 0
5.158797203468569E-4 0
1.7099471951257412E-3 0
-5.123632493381146E-3 0
-2.112792319644637E-3 0
1.695371635055285E-3 0
7.35254585028705E-4 0
-2.4839704510653366E-4 0
-1.5910220575880758E-4 0
-1.656226800970197E-5 0
4.649735281495315E-5 0
1.1132460378906452E-4 0
9.732285231505466E-5 0
-5.666613712736848E-5 0
-1.497676140375217E-4 0
8.31329858966636E-4 0
1.7585211040362482E-3 0
-1.7563150850318573E-3 0
-5.270030862906487E-3 0
2.1000356589468165E-3 0
-5.313250900787646E-3 0
1.0258547212338607E-2 0
-3.5808218601318964E-3 0
7.753726604112624E-3 0
-3.5163212358012793E-3 0
1.0386802823489133E-2 0
-3.6816741419579088E-3 0
1.0799145314146448E-2 0
5.3760351445068825E-3 0
-8.558552872887447E-3 0
-2.7367078001086825E-3 0
1.983131955595703E-3 0
8.571408340145947E-4 0
-1.2724623990549054E-4 0
-6.224499303344589E-5 0
4.318377206015988E-5 0
-4.7303692955016235E-5 0
-1.9619037193531933E-4 0
-3.7067984290425817E-4 0
6.737788142687812E-4 0
1.6197236390501986E-3 0
-2.570201443774848E-3 0
-9.231028630029232E-3 0
5.605437524034121E-3 0
1.0925892156851259E-2 0
2.490750902640279E-3 0
5.842422813195965E-4 0
2.9950039186792864E-4 0
3.7894489017939533E-3 0
4.848627129753033E-1 0
3.749349725975463E-3 0
2.1681439357509096E-4 0
4.525341701990192E-4 0
1.6171639633607393E-3 0
-5.255792398807028E-3 0
-2.2517785368258735E-3 0
1.6107373367983263E-3 0
7.487713035032582E-4 0
-2.445948460379196E-4 0
-4.75828549703288E-5 0
1.9791497733849653E-4 0
2.0598805399360916E-4 0
1.5008066822658897E-4 0
1.1453488634922215E-4 0
-7.049671198654176E-5 0
-1.0543538920331419E-4 0
7.571778187135439E-4 0
1.891364257247166E-3 0
-1.998634568925629E-3 0
-5.227956826432177E-3 0
1.4535484276810196E-2 0
-3.8235213085034245E-3 0
1.0313227543181454E-2 0
-3.5175047731564103E-3 0
7.827589684258297E-3 0
-3.4265968012260808E-3 0
1.0500562365624218E-2 0
-3.5360142681476253E-3 0
1.096746956485909E-2 0
5.543856430356714E-3 0
-8.546135198368648E-3 0
-2.7539374227733273E-3 0
2.078623025404838E-3 0
7.37748570792969E-4 0
-1.0274368076403221E-4 0
-1.1567639796246747E-4 0
-2.2384051738505464E-4 0
-2.644918508938381E-4 0
-3.321038419027454E-4 0
-4.196790180081239E-4 0
6.369365464569236E-4 0
1.596748762241321E-3 0
-2.4309429040852027E-3 0
-9.427843383971932E-3 0
5.814136846596319E-3 0
-6.864046369776017E-3 0
1.7961576928488012E-3 0
5.577313128939468E-4 0
2.661185269140522E-4 0
3.7493497259754927E-3 0
4.848160687582571E-1 0
3.695001206602713E-3 0
1.5364500928616515E-4 0
3.687194459509562E-4 0
1.5077199063223434E-3 0
-5.4718266615991305E-3 0
-2.3870647036042516E-3 0
1.7095625106696745E-3 0
7.820983892592E-4 0
2.070299448422632E-5 0
1.9046948802226913E-4 0
1.9102688024808548E-4 0
1.5939910474037732E-4 0
1.229905146111829E-4 0
1.1032773864219187E-4 0
-7.378821729606968E-5 0
-9.164920164015523E-5 0
6.982848833850401E-4 0
1.9781388538049455E-3 0
-2.154734039315998E-3 0
7.143946187921564E-3 0
1.0651006281311683E-2 0
-3.764559875924427E-3 0
1.0385457392203118E-2 0
-3.426208490686894E-3 0
7.946184875328445E-3 0
-3.268410628442412E-3 0
1.0712095777847899E-2 0
-3.253081292543337E-3 0
1.1317860590151033E-2 0
5.829290009728814E-3 0
-8.328546813349155E-3 0
-2.871521835002103E-3 0
1.9280578664890998E-3 0
4.7410588095396933E-4 0
-6.317185473869654E-4 0
-6.244534019222625E-4 0
-4.441660221071841E-4 0
-3.338561987505229E-4 0
-4.008393789639209E-4 0
-3.636103572561948E-4 0
4.982502416149955E-4 0
1.8411117046445756E-3 0
-2.8516541664403176E-3 0
-9.197824315986642E-3 0
-2.706503308601653E-3 0
-5.017617710905827E-3 0
1.7640425640940757E-3 0
5.158797203468705E-4 0
2.1681439357508462E-4 0
3.6950012066027382E-3 0
4.847566511433228E-1 0
3.631917994444315E-3 0
9.366281744714438E-5 0
3.290100801745445E-4 0
1.437203701220919E-3 0
-5.448056495183738E-3 0
-2.446595521256015E-3 0
1.7276266293120045E-3 0
8.295666835878208E-4 0
-8.921528135422046E-5 0
-3.947000700280201E-5 0
1.1653244435641755E-4 0
1.3023024392735542E-4 0
1.2803482373680857E-4 0
9.398619929009596E-5 0
-4.1674565258793055E-5 0
-1.5575888318146902E-4 0
8.030312631007258E-4 0
1.889644562538966E-3 0
-1.18326390089298E-2 0
5.250628001661038E-3 0
1.0710091554742016E-2 0
-3.6814116379452534E-3 0
1.0505061809241927E-2 0
-3.2618142405966438E-3 0
8.162427067837857E-3 0
-2.993139236268272E-3 0
1.1067835704163313E-2 0
-2.84104350879386E-3 0
1.1835291279365601E-2 0
6.090215009217231E-3 0
-8.833602934133877E-3 0
-2.9510904950707656E-3 0
1.338217399923353E-3 0
-1.4966023071889874E-4 0
-8.722186849699428E-4 0
-6.748685455813841E-4 0
-4.5438126883832363E-4 0
-3.414993287611852E-4 0
-4.2085101637180644E-4 0
-3.2120095306693386E-4 0
4.300961049371702E-4 0
2.0631805480989247E-3 0
-3.084500807761558E-3 0
2.4645809330276296E-3 0
-1.999591444465484E-3 0
-5.055346864855486E-3 0
1.7099471951257297E-3 0
4.5253417019901134E-4 0
1.5364500928614623E-4 0
3.6319179944443087E-3 0
4.846857810150706E-1 0
3.562330494791218E-3 0
4.7263499900988156E-5 0
3.334906779412236E-4 0
1.4330983893550597E-3 0
-5.754909498166232E-3 0
-2.395149432678528E-3 0
1.5881694304080965E-3 0
6.653285598839569E-4 0
-1.6087713190215188E-4 0
-2.551575402148545E-5 0
1.2644149090725037E-4 0
1.301159718289996E-4 0
1.3259214420501076E-4 0
9.401000826468081E-5 0
-3.094254662027769E-5 0
-2.0195518963532906E-4 0
8.415236433091814E-4 0
-3.79035522323702E-3 0
-8.621860228440387E-3 0
5.3017840440909335E-3 0
1.0801415163030063E-2 0
-3.523262060811955E-3 0
1.0735511699037156E-2 0
-2.9720186561151786E-3 0
8.500705335275395E-3 0
-2.5911519087419765E-3 0
1.1500355079330553E-2 0
-2.3937092555622063E-3 0
1.1853740076792416E-2 0
6.275702746259739E-3 0
-8.799901990459375E-3 0
-3.120391343769122E-3 0
1.1706829080207304E-3 0
-1.1330255346661365E-5 0
-8.323752682778355E-4 0
-6.637974885508024E-4 0
-4.644728937937257E-4 0
-3.733220671280984E-4 0
-3.531802208472033E-4 0
-3.2807485159322815E-4 0
6.436684216468659E-4 0
2.0125847551930942E-3 0
1.0556814095731835E-3 0
1.749540484265979E-3 0
-2.0362180860604103E-3 0
-5.123632493381139E-3 0
1.6171639633607467E-3 0
3.687194459509682E-4 0
9.366281744714657E-5 0
3.562330494791172E-3 0
4.8457743380623153E-1 0
3.417608504921697E-3 0
-1.0697242485405174E-4 0
7.681990807463401E-5 0
1.3624664889017688E-3 0
-5.5639193253359115E-3 0
-2.0815362161336758E-3 0
1.7786289956538157E-3 0
8.798986115870576E-4 0
-7.807067373072409E-5 0
-2.5268634077345418E-5 0
1.1538681572569994E-4 0
1.5790660728459048E-4 0
1.5345439311462947E-4 0
9.907573112348838E-5 0
-9.411254837700094E-5 0
-2.0696354923066887E-4 0
2.57347846218759E-3 0
-2.7405050076149263E-3 0
-8.588857456422716E-3 0
5.373260179799541E-3 0
1.0984462118637777E-2 0
-3.1976561195814755E-3 0
1.1137637994371643E-2 0
-2.5604046907065593E-3 0
8.962536026042483E-3 0
-2.059178124810181E-3 0
1.2234219630511916E-2 0
-1.9469191633376827E-3 0
1.2608206295206289E-2 0
6.329095458848003E-3 0
-8.868784305671984E-3 0
-3.605786392845823E-3 0
1.1570139454144955E-3 0
-1.0850573773002508E-5 0
-8.598295398100681E-4 0
-7.548046416039477E-4 0
-4.844799363014468E-4 0
-2.8948342771176894E-4 0
-1.8908060644286858E-4 0
-2.591359303686427E-4 0
7.642758379290273E-4 0
-3.020413399432189E-4 0
7.465231450117513E-4 0
1.7253932211382574E-3 0
-2.1127923196446285E-3 0
-5.25579239880703E-3 0
1.5077199063223375E-3 0
3.2901008017454547E-4 0
4.7263499901003945E-5 0
3.4176085049217133E-3 0
4.843267940562798E-1 0
3.260575634953503E-3 0
-2.0734206739661618E-4 0
1.0116260400045201E-4 0
1.630089785060907E-3 0
-5.115825647902032E-3 0
-1.9054534924560318E-3 0
1.9913675059068723E-3 0
8.78261470233272E-4 0
-1.586574622429066E-4 0
-4.1574666658349074E-5 0
1.9421558182693865E-4 0
2.0253187012366842E-4 0
1.1072330237617689E-4 0
2.8890952274752142E-5 0
-1.4416500778223636E-4 0
9.550553297715089E-4 0
1.9707917538709604E-3 0
-2.7301012420542278E-3 0
-8.578871709456398E-3 0
5.541327642797785E-3 0
1.1401830770040953E-2 0
-2.7038059856507213E-3 0
1.1551017366295465E-2 0
-2.1225412146142473E-3 0
9.478959559066413E-3 0
-1.4239187874927027E-3 0
1.2518215552895298E-2 0
-2.0969572718741907E-3 0
1.241148558486668E-2 0
5.326199077847767E-3 0
-9.211191933903181E-3 0
-3.4375029500925197E-3 0
1.218654392380484E-3 0
-6.112037938203651E-5 0
-1.008238725499458E-3 0
-7.10143135593471E-4 0
-2.2604688673714965E-4 0
-1.3555569254718421E-5 0
-1.1655026863378704E-4 0
-2.115169998731896E-4 0
-1.926669573053543E-4 0
-2.224997033134844E-4 0
7.417650906606045E-4 0
1.6953716350552837E-3 0
-2.2517785368258735E-3 0
-5.471826661599131E-3 0
1.4372037012209088E-3 0
3.3349067794121107E-4 0
-1.0697242485405952E-4 0
3.2605756349534964E-3 0
4.838850060709649E-1 0
2.8228865658721917E-3 0
-2.3284142036637183E-4 0
1.0690103698645731E-4 0
1.956130292984933E-3 0
-4.605005300413589E-3 0
-1.9063283185266318E-3 0
1.7808134577633828E-3 0
6.623314874432166E-4 0
-8.593185734634584E-5 0
1.8663062254735307E-4 0
2.0208346022508133E-4 0
4.343973204308732E-5 0
7.431148235708497E-6 0
-1.652326243543914E-6 0
-2.8528243383953557E-4 0
7.868506263267336E-4 0
2.0133239482811845E-3 0
-2.7749750035046855E-3 0
-8.629766453329002E-3 0
5.882209015479449E-3 0
1.2088796271225579E-2 0
-2.3198729459133105E-3 0
1.1951315945722144E-2 0
-1.6915562146573918E-3 0
9.438855496840813E-3 0
-1.3782806107100788E-3 0
1.3290737229906202E-2 0
-2.661670780680582E-3 0
1.139848618893628E-2 0
5.695842855864053E-3 0
-8.94693062359594E-3 0
-3.3163723868175634E-3 0
1.0885321675280493E-3 0
-3.943794465384957E-4 0
-6.934150276487507E-4 0
-2.172839953150114E-5 0
6.929293049596832E-5 0
-3.191015911984062E-5 0
-1.6123378495204007E-4 0
-1.7756633602344393E-5 0
-1.534680792397322E-4 0
-2.2592466426749568E-4 0
7.352545850287046E-4 0
1.61073733679833E-3 0
-2.3870647036042464E-3 0
-5.448056495183729E-3 0
1.4330983893550682E-3 0
7.681990807463724E-5 0
-2.0734206739662204E-4 0
2.822886565872171E-3 0
4.8371025556690717E-1 0
3.05196927571929E-3 0
-6.068475489339577E-4 0
4.49675180499628E-4 0
1.9565996955095565E-3 0
-5.116752099991858E-3 0
-2.0801337085807666E-3 0
1.586356614319275E-3 0
8.315256094036486E-4 0
1.900796699624825E-5 0
-4.6307549391550295E-5 0
-1.75332291809879E-5 0
5.775454309282E-7 0
1.425865235761634E-5 0
-1.9227195789830805E-4 0
-1.2778855960136117E-4 0
8.253292099694653E-4 0
1.97455214119874E-3 0
-2.864989686448027E-3 0
-8.416445079762403E-3 0
6.239791253311367E-3 0
1.1894502827744513E-2 0
-2.267588449907178E-3 0
1.223971179069239E-2 0
-1.9376992606847982E-3 0
9.899448589845596E-3 0
-9.998355951978447E-4 0
1.2643869037479607E-2 0
-2.2733636374714294E-3 0
1.1954816580716008E-2 0
5.612878243514727E-3 0
-8.562406493691934E-3 0
-3.1416054468097927E-3 0
1.1664144854627008E-3 0
5.836446598166669E-4 0
-1.0398037614815452E-5 0
-3.915486807637048E-5 0
-5.240245932427974E-5 0
-2.8402415770381367E-5 0
1.4679807124829008E-4 0
-2.718636577435476E-5 0
-1.6864091314552172E-4 0
-2.483970451065345E-4 0
7.487713035032583E-4 0
1.7095625106696736E-3 0
-2.446595521256023E-3 0
-5.754909498166239E-3 0
1.3624664889017686E-3 0
1.0116260400045526E-4 0
-2.3284142036636933E-4 0
3.0519692757192906E-3 0
4.8175513058642105E-1 0
2.811249034990723E-3 0
-6.064587637191865E-4 0
1.0513569032860763E-4 0
1.6343121097513202E-3 0
-5.571094229193697E-3 0
-2.3855667574425306E-3 0
1.7170268727063314E-3 0
7.922702039220386E-4 0
-2.5346571969990734E-4 0
-1.52754297383925E-4 0
-1.2386484397148645E-5 0
-5.1446867180148065E-6 0
-7.3772804211575E-5 0
-8.203329229217693E-5 0
-1.6555595738959798E-4 0
8.710314519902091E-4 0
2.0373413972937303E-3 0
-2.970457179460621E-3 0
-8.849209099659416E-3 0
6.27087416768955E-3 0
1.2499180630603271E-2 0
-2.1621529446468326E-3 0
1.2778370683436584E-2 0
-1.5001760916933304E-3 0
1.1480763006218574E-2 0
-1.3919998616784106E-3 0
1.3143434939274102E-2 0
-2.1457870527066387E-3 0
1.2468170352548283E-2 0
6.453080068418813E-3 0
-8.816191545061004E-3 0
-2.9108778546267844E-3 0
2.003335628473714E-3 0
7.980678397372062E-4 0
-1.533854457447311E-4 0
-1.2769288682905062E-4 0
1.7193878035249318E-5 0
1.4679807124829517E-4 0
-5.22011372992933E-6 0
-9.744421634646897E-6 0
-1.591022057588094E-4 0
-2.445948460379242E-4 0
7.820983892591949E-4 0
1.7276266293120028E-3 0
-2.395149432678526E-3 0
-5.563919325335913E-3 0
1.6300897850609077E-3 0
1.0690103698645338E-4 0
-6.068475489339573E-4 0
2.8112490349907213E-3 0
4.817551305864211E-1 0
3.051172610092842E-3 0
-2.292240219993058E-4 0
9.247092224423317E-5 0
1.3774358196803147E-3 0
-5.7753052475516325E-3 0
-2.423863482315757E-3 0
1.688355915636492E-3 0
7.665291825530677E-4 0
-2.6225119378350966E-4 0
-1.6022575524221832E-4 0
-3.1341682093714305E-5 0
-7.377280421155947E-5 0
1.7022131563754137E-5 0
-1.325930345497334E-4 0
-1.411368578811106E-4 0
7.790301989040907E-4 0
2.026993210947621E-3 0
-2.9354843295452235E-3 0
-8.795073411889188E-3 0
6.438121123451035E-3 0
1.2476681257639314E-2 0
-2.1493042342109647E-3 0
1.3144209533975094E-2 0
-1.3919998616784093E-3 0
1.148076300621856E-2 0
-1.500231163547378E-3 0
1.2778620746735784E-2 0
-2.162504857609211E-3 0
1.249853850478485E-2 0
6.2748821142977725E-3 0
-8.858577746348432E-3 0
-2.9570250382378272E-3 0
2.024998717415202E-3 0
8.837197497411608E-4 0
-1.8272979530905778E-4 0
-7.639795725341776E-5 0
-1.935442858517098E-5 0
1.44897276068752E-5 0
-2.6612840849745235E-7 0
-1.6562268009702476E-5 0
-4.75828549703305E-5 0
2.0702994484225143E-5 0
8.29566683587819E-4 0
1.5881694304080906E-3 0
-2.081536216133682E-3 0
-5.1158256479020385E-3 0
1.956130292984926E-3 0
4.4967518049962373E-4 0
-6.064587637191845E-4 0
3.05117261009284E-3 0
4.837120206928445E-1 0
2.8187528037393367E-3 0
-1.9914388776351414E-4 0
6.341095568349366E-5 0
1.4516448265499296E-3 0
-5.469553155282183E-3 0
-2.3671902354457175E-3 0
1.5974451116154045E-3 0
7.463075321187105E-4 0
-2.416078586301662E-4 0
-1.5152419940491483E-4 0
-1.9450334390791067E-4 0
-2.9882763495232866E-5 0
-4.3173970121746175E-5 0
-5.366554663335521E-5 0
8.306978057289827E-6 0
5.620045387604279E-4 0
1.188645636942497E-3 0
-3.1611527184862136E-3 0
-8.548119528217817E-3 0
5.604698921603128E-3 0
1.1957906134944147E-2 0
-2.2733422258972933E-3 0
1.264311436370123E-2 0
-9.99910587974492E-4 0
9.903152695381525E-3 0
-1.9508039347262607E-3 0
1.2267508983399901E-2 0
-2.311191327624495E-3 0
1.1947572524664378E-2 0
6.189959112016499E-3 0
-8.380106724589251E-3 0
-2.892464918485296E-3 0
2.004698867954274E-3 0
7.967948766877752E-4 0
-1.2081608512308446E-4 0
-1.8541189223175692E-4 0
-4.847077099829848E-6 0
7.210255140327325E-6 0
4.649735281495862E-5 0
1.9791497733850113E-4 0
1.9046948802226916E-4 0
-8.921528135422322E-5 0
6.653285598839554E-4 0
1.7786289956538187E-3 0
-1.905453492456032E-3 0
-4.605005300413585E-3 0
1.9565996955095634E-3 0
1.0513569032861273E-4 0
-2.2922402199930796E-4 0
2.8187528037393254E-3 0
4.8388615333559976E-1 0
3.265909967889372E-3 0
-1.2047110678109794E-4 0
3.528968824422665E-4 0
1.4177694309838716E-3 0
-5.456223691792779E-3 0
-2.2696513284947E-3 0
1.7205335932444113E-3 0
7.213968871345286E-4 0
-2.3087791075054556E-4 0
-2.751504388851749E-4 0
-1.4934128008840317E-4 0
-4.276276382120857E-5 0
8.14526464096837E-5 0
-3.203785588723419E-5 0
-6.846393303263244E-4 0
-4.0318556985049976E-4 0
1.0968403493382252E-3 0
-3.3228622336363397E-3 0
-8.943536714348247E-3 0
5.695836971000935E-3 0
1.1395300707777558E-2 0
-2.658244053578339E-3 0
1.329107774760748E-2 0
-1.39128676575468E-3 0
9.481046052418821E-3 0
-1.7777612808598262E-3 0
1.2088347489913547E-2 0
-2.4983075461209483E-3 0
1.2279831137482305E-2 0
5.7194473018068155E-3 0
-8.524333771918026E-3 0
-2.8609803651912925E-3 0
2.127607551101096E-3 0
7.543778662784607E-4 0
-3.204484112082469E-4 0
-1.2497266543884546E-4 0
2.1515149804636543E-5 0
1.1132460378906738E-4 0
2.0598805399360892E-4 0
1.910268802480836E-4 0
-3.9470007002802004E-5 0
-1.6087713190215483E-4 0
8.798986115870525E-4 0
1.9913675059068867E-3 0
-1.9063283185266192E-3 0
-5.11675209999186E-3 0
1.6343121097513187E-3 0
9.247092224423049E-5 0
-1.99143887763511E-4 0
3.265909967889367E-3 0
4.842938724756015E-1 0
3.4869369373548686E-3 0
-5.4355604513336026E-5 0
4.4190730151299985E-4 0
1.4136418237798616E-3 0
-5.1968288336229004E-3 0
-2.1711439830689196E-3 0
1.8096939653453102E-3 0
7.454739715383767E-4 0
9.275574439048323E-4 0
-2.0438084823882935E-4 0
-1.0163852002371747E-4 0
-2.6988913820809543E-5 0
-2.2132935698066623E-4 0
-7.084192081057551E-4 0
-1.0094068638661542E-3 0
-6.197739280661027E-5 0
1.2203274291346052E-3 0
-3.437545884557411E-3 0
-9.214555359845928E-3 0
5.334604705501673E-3 0
1.2403190045317173E-2 0
-2.0975245503780993E-3 0
1.2545778602920589E-2 0
-1.51011875201606E-3 0
9.651942545506432E-3 0
-2.399902398207889E-3 0
1.192667388654439E-2 0
-3.1397425187693205E-3 0
1.182081903269427E-2 0
5.241851564219377E-3 0
-8.450486555387816E-3 0
-2.7569025277460607E-3 0
2.100540022004053E-3 0
1.0922722469876287E-3 0
-2.182837314022757E-4 0
-8.224383392089632E-5 0
9.732285231505546E-5 0
1.5008066822659125E-4 0
1.5939910474037797E-4 0
1.165324443564171E-4 0
-2.5515754021485436E-5 0
-7.807067373072151E-5 0
8.782614702332901E-4 0
1.7808134577633882E-3 0
-2.0801337085807705E-3 0
-5.5710942291937E-3 0
1.3774358196803175E-3 0
6.341095568350497E-5 0
-1.2047110678111502E-4 0
3.4869369373548877E-3 0
4.844302228941435E-1 0
3.788286004280335E-3 0
-1.7753753795665624E-4 0
6.150365042711158E-4 0
1.4729315820097607E-3 0
-5.095511094624715E-3 0
-2.012690595369536E-3 0
1.8156108337262287E-3 0
2.6366488635811845E-3 0
7.083620443111736E-4 0
-2.4674352113523995E-4 0
-1.9340820585229143E-4 0
-2.814534540188308E-4 0
-4.995992471036357E-4 0
-7.447581007613587E-4 0
-8.631492530195509E-4 0
-1.0763076815544853E-5 0
1.1553661690529504E-3 0
-3.5992906632626616E-3 0
-8.88345534893384E-3 0
6.343693383000657E-3 0
1.2607925190203E-2 0
-1.990146981196008E-3 0
1.2371286239407562E-2 0
-2.336663778512717E-3 0
9.416375921626509E-3 0
-3.1983851555226405E-3 0
1.193013261317076E-2 0
-4.063243996574364E-3 0
1.1781314797693393E-2 0
4.91564581586074E-3 0
-8.580173564151168E-3 0
-2.8342179540057303E-3 0
2.4004199574733146E-3 0
8.187639016674221E-4 0
-1.8376984656018637E-4 0
-5.666613712736641E-5 0
1.1453488634922393E-4 0
1.2299051461118896E-4 0
1.302302439273536E-4 0
1.2644149090725482E-4 0
-2.5268634077333095E-5 0
-1.5865746224290078E-4 0
6.623314874432177E-4 0
1.586356614319278E-3 0
-2.38556675744253E-3 0
-5.775305247551627E-3 0
1.4516448265499268E-3 0
3.528968824422719E-4 0
-5.435560451334578E-5 0
3.788286004280372E-3 0
4.843128925077415E-1 0
4.128219131828619E-3 0
-3.721277487636774E-4 0
8.65740978965121E-4 0
1.5731085100666772E-3 0
-5.2002168524954975E-3 0
-1.9555947914078995E-3 0
-3.9287727099201995E-3 0
1.9090463630423834E-3 0
6.975259911336017E-4 0
-3.7296008167384106E-4 0
-3.448998926654389E-4 0
-3.5725962960847746E-4 0
-4.753763410531011E-4 0
-6.637590759051735E-4 0
-8.292074806590458E-4 0
-1.0562283960657507E-5 0
1.162373265989762E-3 0
-3.1003658845345484E-3 0
-8.82055341168471E-3 0
6.27924398092147E-3 0
1.1906334337728697E-2 0
-2.5721548895503406E-3 0
1.1876130932019108E-2 0
-3.229033972372651E-3 0
9.431617255572339E-3 0
-4.183201572210391E-3 0
1.2182909963137551E-2 0
-5.125508931454945E-3 0
1.2275331812161285E-2 0
4.351126562223794E-3 0
-8.687936899869532E-3 0
-2.6036705433554234E-3 0
1.7164311337252685E-3 0
8.440172709984924E-4 0
-1.4976761403752095E-4 0
-7.049671198654135E-5 0
1.1032773864218847E-4 0
1.2803482373680892E-4 0
1.3011597182900777E-4 0
1.1538681572571013E-4 0
-4.157466665834887E-5 0
-8.593185734634897E-5 0
8.31525609403652E-4 0
1.7170268727063323E-3 0
-2.4238634823157542E-3 0
-5.4695531552821875E-3 0
1.417769430983878E-3 0
4.419073015129974E-4 0
-1.7753753795667011E-4 0
4.128219131828661E-3 0
4.840096788603436E-1 0
4.620865648466865E-3 0
-7.223420614206014E-4 0
1.2079507091050125E-3 0
1.502530520864039E-3 0
-5.304285496197241E-3 0
-1.154082490553949E-2 0
-2.852970947114571E-3 0
1.7705891322407701E-3 0
6.735289804823609E-4 0
-4.241261572307032E-4 0
-4.074530133628789E-4 0
-3.416534340479902E-4 0
-4.4339925549446865E-4 0
-6.848501835317149E-4 0
-8.708822230132089E-4 0
-1.408699998782573E-4 0
1.3155129327248132E-3 0
-2.926963286498943E-3 0
-8.842492314476275E-3 0
6.040865147271841E-3 0
1.2026301337174555E-2 0
-3.2770496630614666E-3 0
1.1860090872988494E-2 0
-4.204149693632016E-3 0
9.774141411090556E-3 0
-5.2411619394061885E-3 0
1.2848783797138205E-2 0
-6.31776244244908E-3 0
1.3088734694736344E-2 0
4.315524973972694E-3 0
-7.010676525394728E-3 0
-1.8232713256906186E-3 0
1.71553506193754E-3 0
8.313298589666311E-4 0
-1.0543538920331779E-4 0
-7.37882172960782E-5 0
9.398619929009267E-5 0
1.3259214420501792E-4 0
1.579066072845996E-4 0
1.9421558182693488E-4 0
1.8663062254735383E-4 0
1.9007966996246873E-5 0
7.922702039220411E-4 0
1.6883559156364938E-3 0
-2.3671902354457206E-3 0
-5.456223691792772E-3 0
1.4136418237798412E-3 0
6.150365042711149E-4 0
-3.721277487636641E-4 0
4.620865648466857E-3 0
4.8349065860199764E-1 0
5.329580585825741E-3 0
-1.2679360001187647E-3 0
1.6061730008631024E-3 0
1.5708169284269595E-3 0
6.549714366262624E-3 0
-8.567107013987862E-3 0
-2.7624401186427438E-3 0
1.6210562428995994E-3 0
6.364954098417049E-4 0
-3.635881523769813E-4 0
-4.14089018795434E-4 0
-3.498566104233771E-4 0
-4.2922010360162865E-4 0
-6.262978157299453E-4 0
-6.404869177691716E-4 0
4.961692842853385E-4 0
1.904812042783375E-3 0
-2.858501452547486E-3 0
-8.292630958348366E-3 0
5.66651741784278E-3 0
1.1736978080557153E-2 0
-4.118511878424841E-3 0
1.215945700857541E-2 0
-5.247941208702704E-3 0
1.0344132765280317E-2 0
-6.236392502163791E-3 0
1.362542036392817E-2 0
-6.857861625841315E-3 0
1.2969629275824077E-2 0
2.6643999863753443E-3 0
-5.186981090512361E-3 0
-1.7631742656713755E-3 0
1.7585211040362489E-3 0
7.571778187135371E-4 0
-9.164920164016363E-5 0
-4.1674565258797466E-5 0
9.40100082646843E-5 0
1.534543931146326E-4 0
2.0253187012366422E-4 0
2.020834602250865E-4 0
-4.630754939155264E-5 0
-2.5346571969990305E-4 0
7.665291825530692E-4 0
1.5974451116154054E-3 0
-2.269651328494699E-3 0
-5.196828833622908E-3 0
1.472931582009766E-3 0
8.657409789651133E-4 0
-7.223420614205933E-4 0
5.3295805858257495E-3 0
4.827024547157584E-1 0
6.218196480277667E-3 0
-1.622178463738244E-3 0
1.3292777172868389E-3 0
1.5624518514099815E-2 0
4.801960397314584E-3 0
-8.832735088141658E-3 0
-2.569008196414267E-3 0
1.5967923476955762E-3 0
4.986111191032617E-4 0
-3.168588535203219E-4 0
-3.404723278752304E-4 0
-2.7231693572573126E-4 0
-2.2841496126673925E-4 0
-1.0538894624300591E-4 0
-1.2186945671051229E-4 0
7.564236984246936E-4 0
2.0666428587277135E-3 0
-2.7809951062461938E-3 0
-8.440665928995554E-3 0
5.244201988254461E-3 0
1.1764179304001681E-2 0
-5.138260749212813E-3 0
1.284449410857781E-2 0
-6.23680629178992E-3 0
1.1039229725584855E-2 0
-7.159999333277296E-3 0
1.38281136091542E-2 0
-6.2167666690053774E-3 0
7.097663354222371E-4 0
2.0992897759966518E-3 0
-5.28125959817613E-3 0
-1.7563150850318581E-3 0
1.8913642572471604E-3 0
6.982848833850372E-4 0
-1.5575888318146813E-4 0
-3.0942546620277446E-5 0
9.907573112348763E-5 0
1.1072330237617896E-4 0
4.343973204308573E-5 0
-1.7533229180990967E-5 0
-1.527542973839237E-4 0
-2.62251193783507E-4 0
7.463075321187126E-4 0
1.7205335932444046E-3 0
-2.1711439830689174E-3 0
-5.095511094624713E-3 0
1.5731085100666744E-3 0
1.207950709105012E-3 0
-1.2679360001187515E-3 0
6.21819648027764E-3 0
4.816239862030248E-1 0
6.960004812774569E-3 0
-1.0805104535039555E-3 0
-7.120309912767779E-3 0
1.136577516871621E-2 0
5.016243102501774E-3 0
-9.23102746971481E-3 0
-2.432145329952083E-3 0
1.8398080692996978E-3 0
4.305041487310543E-4 0
-3.2574809871115237E-4 0
-1.9200799759556584E-4 0
-3.414352556418022E-5 0
3.07714481393519E-5 0
-4.753909519551198E-5 0
-1.3918324706172817E-4 0
8.695175510581632E-4 0
2.0130827272261667E-3 0
-2.8224572125604176E-3 0
-8.429902653957655E-3 0
4.918580399357748E-3 0
1.2272994691315106E-2 0
-6.318157846678407E-3 0
1.3626711182025497E-2 0
-7.158787145557818E-3 0
1.1815411239003565E-2 0
-7.514290927325872E-3 0
1.3507472115624952E-2 0
4.532933631253552E-4 0
3.750947532411533E-4 0
2.201496885452217E-3 0
-5.270030862906487E-3 0
-1.9986345689256293E-3 0
1.978138853804945E-3 0
8.030312631007277E-4 0
-2.0195518963532667E-4 0
-9.411254837700462E-5 0
2.8890952274751115E-5 0
7.431148235702845E-6 0
5.775454309286787E-7 0
-1.2386484397147564E-5 0
-1.6022575524221686E-4 0
-2.416078586301676E-4 0
7.213968871345182E-4 0
1.8096939653453182E-3 0
-2.0126905953695524E-3 0
-5.200216852495478E-3 0
1.5025305208640255E-3 0
1.6061730008630987E-3 0
-1.6221784637382314E-3 0
6.960004812774584E-3 0
4.812856739590374E-1 0
5.924293153213214E-3 0
1.6103860219602757E-2 0
-4.998803056400281E-3 0
1.0957685096024234E-2 0
5.604502638331921E-3 0
-9.429904687112361E-3 0
-2.8543173104654553E-3 0
2.0607735039929066E-3 0
6.417506436540704E-4 0
-2.6125586388893376E-4 0
-1.1631980606285605E-4 0
-1.500005198410206E-5 0
-2.5827221440650832E-5 0
-1.1574728903262527E-4 0
-1.9467539310547726E-4 0
7.702199734779734E-4 0
2.110695924320833E-3 0
-2.757129314913559E-3 0
-8.578060081410238E-3 0
4.353053494785227E-3 0
1.309113069061946E-2 0
-6.855186676861266E-3 0
1.3830163235561885E-2 0
-7.5133428437395575E-3 0
1.1504752033681192E-2 0
-6.5358783514001565E-3 0
5.5974160761814076E-3 0
4.543710996566093E-4 0
4.6334086618026897E-4 0
2.1000356589468147E-3 0
-5.227956826432175E-3 0
-2.1547340393159946E-3 0
1.8896445625389666E-3 0
8.4152364330918E-4 0
-2.0696354923067315E-4 0
-1.4416500778223528E-4 0
-1.6523262435460945E-6 0
1.4258652357617183E-5 0
-5.144686718014371E-6 0
-3.134168209371109E-5 0
-1.5152419940491155E-4 0
-2.308779107505424E-4 0
7.454739715383671E-4 0
1.81561083372624E-3 0
-1.9555947914079055E-3 0
-5.304285496197241E-3 0
1.5708169284269664E-3 0
1.3292777172868356E-3 0
-1.0805104535039514E-3 0
5.924293153213211E-3 0
4.8221131229674336E-1 0
-6.301019713865637E-3 0
1.134096483227026E-2 0
-4.375033101661942E-3 0
1.0924994686118726E-2 0
5.812490210076979E-3 0
-9.199944442967288E-3 0
-3.086589287380031E-3 0
2.011080222432274E-3 0
7.654196568497256E-4 0
-2.0338281427354619E-4 0
-1.4260212047995468E-4 0
-1.3769755857361543E-5 0
1.994355932440681E-5 0
-7.914763854257813E-5 0
-1.3544857674931853E-4 0
7.357454376710407E-4 0
2.092407691168243E-3 0
-2.8353650612925095E-3 0
-8.686427617181608E-3 0
4.317607590116495E-3 0
1.2971755774186631E-2 0
-6.215126284955705E-3 0
1.350837604605225E-2 0
-6.5356112775250145E-3 0
1.0226456414036586E-2 0
1.4397642770533795E-2 0
-5.01622572041901E-3 0
1.4027126921619625E-2 0
-5.313250900787652E-3 0
1.453548427681019E-2 0
7.143946187921554E-3 0
-1.1832639008929799E-2 0
-3.7903552232370265E-3 0
2.5734784621875883E-3 0
9.5505532977151E-4 0
-2.852824338395347E-4 0
-1.9227195789830526E-4 0
-7.377280421157686E-5 0
-7.377280421156134E-5 0
-1.9450334390791094E-4 0
-2.7515043888516963E-4 0
9.275574439048291E-4 0
2.636648863581188E-3 0
-3.928772709920208E-3 0
-1.154082490553949E-2 0
6.5497143662626165E-3 0
1.5624518514099803E-2 0
-7.1203099127677945E-3 0
1.6103860219602764E-2 0
-6.30101971386564E-3 0
6.846880106388646E-1 0
-5.186301642716077E-2 0
3.3403072548393803E-3 0
-2.010688151797451E-3 0
-2.09819614103851E-2 0
4.096771394911756E-2 0
1.1838175176853158E-2 0
-1.6440319788500305E-2 0
-4.174081647097186E-3 0
2.67232634554434E-3 0
8.324644219651679E-4 0
-1.8234725970125122E-5 0
-8.650874343369724E-4 0
-8.650874343369638E-4 0
-6.6675269861437165E-6 0
7.799415499758147E-4 0
2.80512982756445E-3 0
-4.435921198158514E-3 0
-1.598804363894307E-2 0
1.1130179278533513E-2 0
4.193212731310395E-2 0
-2.2020501858480403E-2 0
-1.6990418053447576E-3 0
4.211273953984437E-3 0
-5.538812689737342E-2 0
-5.016225720417994E-3 0
7.658788118826421E-3 0
-3.6287379745419935E-3 0
1.0258547212338587E-2 0
-3.8235213085034137E-3 0
1.0651006281311682E-2 0
5.250628001661031E-3 0
-8.62186022844038E-3 0
-2.740505007614927E-3 0
1.9707917538709643E-3 0
7.868506263267354E-4 0
-1.2778855960136266E-4 0
-8.203329229217011E-5 0
1.702213156374674E-5 0
-2.988276349523202E-5 0
-1.4934128008839737E-4 0
-2.0438084823882878E-4 0
7.083620443111701E-4 0
1.9090463630423871E-3 0
-2.852970947114566E-3 0
-8.567107013987867E-3 0
4.80196039731458E-3 0
1.1365775168716216E-2 0
-4.998803056400273E-3 0
1.1340964832270262E-2 0
-5.186301642716076E-2 0
5.980852364035829E-1 0
-3.775406732995735E-2 0
2.4916481421900696E-3 0
-1.3849750831424136E-3 0
-1.52046222795386E-2 0
2.9910022886882326E-2 0
8.736281276014201E-3 0
-1.1739994064803963E-2 0
-2.9202023386481315E-3 0
1.9718712690403816E-3 0
6.982739387261203E-4 0
5.114384834238295E-5 0
8.502241553890075E-5 0
-9.767728940405602E-5 0
-1.3124159841823092E-4 0
4.986099816585344E-4 0
1.975216581107554E-3 0
-3.3950634647380647E-3 0
-1.1366987865691434E-2 0
7.547465618925103E-3 0
3.129884054273746E-2 0
-1.7362032178897265E-2 0
2.8073977228710765E-4 0
1.8161608302399528E-3 0
1.4027126921618078E-2 0
-3.6284718569335643E-3 0
7.697440730142062E-3 0
-3.58082186013191E-3 0
1.0313227543181458E-2 0
-3.764559875924442E-3 0
1.0710091554742021E-2 0
5.301784044090933E-3 0
-8.588857456422716E-3 0
-2.730101242054228E-3 0
2.0133239482811854E-3 0
8.253292099694658E-4 0
-1.655559573895929E-4 0
-1.3259303454973622E-4 0
-4.317397012174046E-5 0
-4.276276382120915E-5 0
-1.0163852002371813E-4 0
-2.4674352113524634E-4 0
6.975259911336033E-4 0
1.7705891322407773E-3 0
-2.7624401186427472E-3 0
-8.832735088141658E-3 0
5.01624310250178E-3 0
1.0957685096024244E-2 0
-4.375033101661946E-3 0
3.3403072548393955E-3 0
-3.7754067329957355E-2 0
5.981413396901694E-1 0
-3.768201984622994E-2 0
2.5799682775173153E-3 0
-1.2760508339845547E-3 0
-1.5069739300152572E-2 0
3.0071129343794592E-2 0
8.894867949922022E-3 0
-1.1631644217559928E-2 0
-2.862756388893971E-3 0
2.0013451593581632E-3 0
7.407889373678918E-4 0
-1.0554067774085085E-4 0
-6.027565234747414E-5 0
-1.1289148763888041E-4 0
-2.2652693768838967E-4 0
3.235656814618213E-4 0
1.8383175965907765E-3 0
-3.5118800735763392E-3 0
-1.1291767592353223E-2 0
7.148328631046404E-3 0
3.203015527674907E-2 0
-1.8103907768486804E-2 0
-2.2559472925681373E-4 0
-5.313250900786226E-3 0
1.0259407756873413E-2 0
-3.5799008735914817E-3 0
7.753726604112691E-3 0
-3.5175047731564302E-3 0
1.0385457392203114E-2 0
-3.681411637945256E-3 0
1.0801415163030069E-2 0
5.37326017979954E-3 0
-8.578871709456402E-3 0
-2.774975003504687E-3 0
1.9745521411987407E-3 0
8.71031451990213E-4 0
-1.4113685788111298E-4 0
-5.366554663334409E-5 0
8.145264640967959E-5 0
-2.6988913820818467E-5 0
-1.9340820585229078E-4 0
-3.7296008167383884E-4 0
6.73528980482356E-4 0
1.621056242899603E-3 0
-2.5690081964142696E-3 0
-9.231027469714805E-3 0
5.604502638331921E-3 0
1.0924994686118725E-2 0
-2.0106881517974393E-3 0
2.491648142190079E-3 0
-3.768201984622996E-2 0
5.982285634260616E-1 0
-3.7577921332953075E-2 0
2.7074183685087748E-3 0
-1.1131468808160095E-3 0
-1.4855010899634473E-2 0
3.0340958632345195E-2 0
9.19708621563295E-3 0
-1.1530838947849405E-2 0
-2.8545623652349948E-3 0
2.1351901691202746E-3 0
6.410049634260944E-4 0
-1.159443512990059E-4 0
-2.2121525765419394E-4 0
-4.8769590979328835E-4 0
-5.314685615532881E-4 0
2.656739212783816E-4 0
1.6725896240106142E-3 0
-3.373542164144489E-3 0
-1.1552886646643664E-2 0
7.149918202295239E-3 0
3.182257549452021E-2 0
-1.7365821330272098E-2 0
1.4535484276809224E-2 0
-3.821948288063865E-3 0
1.0315278624851121E-2 0
-3.516321235801249E-3 0
7.82758968425831E-3 0
-3.4262084906869225E-3 0
1.0505061809241949E-2 0
-3.5232620608119662E-3 0
1.0984462118637782E-2 0
5.541327642797778E-3 0
-8.629766453328998E-3 0
-2.8649896864480274E-3 0
2.0373413972937307E-3 0
7.790301989040902E-4 0
8.306978057291801E-6 0
-3.20378558872396E-5 0
-2.213293569806711E-4 0
-2.814534540188276E-4 0
-3.448998926654427E-4 0
-4.2412615723069367E-4 0
6.364954098417135E-4 0
1.5967923476955753E-3 0
-2.4321453299520892E-3 0
-9.429904687112361E-3 0
5.812490210076968E-3 0
-2.098196141038508E-2 0
-1.384975083142432E-3 0
2.5799682775173474E-3 0
-3.757792133295308E-2 0
5.983497418371794E-1 0
-3.743428343877494E-2 0
2.887311798715559E-3 0
-8.756743030477893E-4 0
-1.4504191469545126E-2 0
3.0839407673965893E-2 0
9.652530646029485E-3 0
-1.122326985851083E-2 0
-2.906929183228565E-3 0
1.973464631341709E-3 0
2.0306720603619177E-4 0
-8.633645576942653E-4 0
-8.387448813617574E-4 0
-5.937468716625378E-4 0
-5.939525906090005E-4 0
4.083619992479646E-4 0
1.4119107946577144E-3 0
-2.8626239228685606E-3 0
-1.240254498301144E-2 0
8.697206024133472E-3 0
3.1309561728287104E-2 0
7.1439461879220295E-3 0
1.0653044894871453E-2 0
-3.7619507638268026E-3 0
1.0386802823489125E-2 0
-3.42659680122607E-3 0
7.946184875328452E-3 0
-3.2618142405966433E-3 0
1.0735511699037158E-2 0
-3.1976561195814802E-3 0
1.1401830770040946E-2 0
5.882209015479453E-3 0
-8.416445079762412E-3 0
-2.9704571794606214E-3 0
2.0269932109476226E-3 0
5.620045387604242E-4 0
-6.846393303263333E-4 0
-7.084192081057538E-4 0
-4.995992471036381E-4 0
-3.572596296084724E-4 0
-4.0745301336287044E-4 0
-3.6358815237697885E-4 0
4.986111191032607E-4 0
1.8398080692997028E-3 0
-2.854317310465463E-3 0
-9.199944442967293E-3 0
4.0967713949117544E-2 0
-1.520462227953858E-2 0
-1.276050833984583E-3 0
2.707418368508766E-3 0
-3.743428343877496E-2 0
5.985128036139559E-1 0
-3.7239065133096536E-2 0
3.12509704832031E-3 0
-5.569156438565203E-4 0
-1.4116923476815299E-2 0
3.160933776409586E-2 0
1.0115475882569475E-2 0
-1.2028715606870839E-2 0
-3.1240550150231938E-3 0
1.03752537868588E-3 0
-6.18530195134427E-4 0
-8.289557138492604E-4 0
-6.286624155073968E-4 0
-4.516205119615225E-4 0
-5.586446032865101E-4 0
4.6802509551866026E-4 0
1.2841287121803152E-3 0
-2.453021368699481E-3 0
-1.3071920229516566E-2 0
9.583110211117267E-3 0
-1.1832639008929833E-2 0
5.252661572325563E-3 0
1.0712374912706645E-2 0
-3.6816741419579218E-3 0
1.0500562365624204E-2 0
-3.2684106284424047E-3 0
8.162427067837841E-3 0
-2.9720186561151486E-3 0
1.1137637994371627E-2 0
-2.7038059856507135E-3 0
1.2088796271225591E-2 0
6.239791253311363E-3 0
-8.849209099659423E-3 0
-2.935484329545224E-3 0
1.1886456369424943E-3 0
-4.031855698504962E-4 0
-1.0094068638661533E-3 0
-7.44758100761356E-4 0
-4.7537634105310076E-4 0
-3.4165343404799154E-4 0
-4.1408901879543973E-4 0
-3.16858853520324E-4 0
4.3050414873104827E-4 0
2.0607735039929087E-3 0
-3.0865892873800332E-3 0
1.1838175176853144E-2 0
2.9910022886882326E-2 0
-1.5069739300152565E-2 0
-1.1131468808160212E-3 0
2.8873117987155837E-3 0
-3.7239065133096556E-2 0
5.98741430431045E-1 0
-3.69655748423374E-2 0
3.4206186323292084E-3 0
-3.382689215298575E-4 0
-1.3834105128592008E-2 0
3.1369062320927336E-2 0
1.036984703549618E-2 0
-1.1693789711210899E-2 0
-2.986134098401259E-3 0
1.4773889624421141E-3 0
1.9709502907680598E-4 0
-6.08001726019702E-4 0
-5.115362569905121E-4 0
-4.7723183123871604E-4 0
-4.6358261177131414E-4 0
2.66969021768909E-4 0
1.5953919006930454E-3 0
-3.0556900231417344E-3 0
-1.2660975168885657E-2 0
-3.7903552232371454E-3 0
-8.620388452757938E-3 0
5.303620265560847E-3 0
1.0799145314146469E-2 0
-3.5360142681476188E-3 0
1.071209577784786E-2 0
-2.9931392362683076E-3 0
8.500705335275412E-3 0
-2.560404690706566E-3 0
1.155101736629547E-2 0
-2.3198729459133066E-3 0
1.1894502827744511E-2 0
6.270874167689535E-3 0
-8.795073411889181E-3 0
-3.161152718486218E-3 0
1.0968403493382258E-3 0
-6.19773928066124E-5 0
-8.63149253019551E-4 0
-6.637590759051746E-4 0
-4.4339925549447223E-4 0
-3.498566104233762E-4 0
-3.4047232787523285E-4 0
-3.257480987111509E-4 0
6.417506436540684E-4 0
2.011080222432277E-3 0
-1.6440319788500295E-2 0
8.736281276014207E-3 0
3.007112934379459E-2 0
-1.485501089963446E-2 0
-8.756743030478026E-4 0
3.1250970483202973E-3 0
-3.696557484233747E-2 0
5.991139303476923E-1 0
-3.651172342907305E-2 0
3.828291581214339E-3 0
-5.274301643141783E-5 0
-1.3661889760030379E-2 0
3.336822192912523E-2 0
1.065068891687099E-2 0
-1.1058781729675607E-2 0
-2.8986390321850096E-3 0
1.457563553051168E-3 0
1.5192266829496632E-5 0
-6.746312619152384E-4 0
-5.040156504839742E-4 0
-5.22042966974481E-4 0
-4.5793670615709486E-4 0
1.1510740302873778E-4 0
1.9065152626676328E-3 0
-3.3763295660611775E-3 0
2.573478462187664E-3 0
-2.741602809558058E-3 0
-8.586661879522766E-3 0
5.376035144506859E-3 0
1.096746956485909E-2 0
-3.2530812925433187E-3 0
1.1067835704163332E-2 0
-2.5911519087419895E-3 0
8.962536026042493E-3 0
-2.122541214614233E-3 0
1.1951315945722149E-2 0
-2.267588449907185E-3 0
1.2499180630603273E-2 0
6.438121123451027E-3 0
-8.548119528217811E-3 0
-3.322862233636343E-3 0
1.2203274291346113E-3 0
-1.0763076815538119E-5 0
-8.292074806590437E-4 0
-6.848501835317141E-4 0
-4.2922010360162545E-4 0
-2.723169357257221E-4 0
-1.920079975955658E-4 0
-2.6125586388894265E-4 0
7.654196568497188E-4 0
-4.1740816470971845E-3 0
-1.1739994064803973E-2 0
8.894867949922022E-3 0
3.0340958632345198E-2 0
-1.4504191469545093E-2 0
-5.569156438564938E-4 0
3.420618632329251E-3 0
-3.6511723429073085E-2 0
5.997943267745804E-1 0
-3.575772336657341E-2 0
4.55398736319552E-3 0
5.777162675178957E-4 0
-1.4128541280156288E-2 0
3.299206560057633E-2 0
9.199420892311818E-3 0
-1.2199691834385497E-2 0
-3.799880200201729E-3 0
1.06748953580469E-3 0
1.611521777688549E-5 0
-6.077808046234657E-4 0
-6.085049024231088E-4 0
-6.291491365442865E-4 0
-5.214923412701378E-4 0
3.793185370068162E-4 0
1.9246798697207933E-3 0
9.550553297714915E-4 0
1.962918943336681E-3 0
-2.7300029871289064E-3 0
-8.558552872887443E-3 0
5.543856430356717E-3 0
1.1317860590151033E-2 0
-2.8410435087938665E-3 0
1.1500355079330558E-2 0
-2.0591781248101857E-3 0
9.478959559066441E-3 0
-1.6915562146573825E-3 0
1.2239711790692397E-2 0
-2.1621529446468357E-3 0
1.2476681257639326E-2 0
5.604698921603124E-3 0
-8.943536714348223E-3 0
-3.437545884557392E-3 0
1.155366169052958E-3 0
-1.0562283960656143E-5 0
-8.708822230132074E-4 0
-6.262978157299459E-4 0
-2.2841496126674527E-4 0
-3.414352556418012E-5 0
-1.1631980606284941E-4 0
-2.0338281427354226E-4 0
2.672326345544328E-3 0
-2.920202338648124E-3 0
-1.1631644217559925E-2 0
9.197086215632954E-3 0
3.0839407673965872E-2 0
-1.4116923476815316E-2 0
-3.3826892152986833E-4 0
3.8282915812143537E-3 0
-3.575772336657342E-2 0
6.007485233373888E-1 0
-3.5878122833252195E-2 0
3.794856708011009E-3 0
2.1776711045452173E-4 0
-1.4760903186206927E-2 0
3.100696940300814E-2 0
8.722406214178491E-3 0
-1.2984383083545383E-2 0
-3.7890493795457733E-3 0
1.4417748632966E-3 0
2.1372141521538502E-4 0
-8.525067295300257E-4 0
-8.150231929032521E-4 0
-4.818911727180738E-4 0
-2.819887731535086E-4 0
6.198188241460204E-4 0
-2.8528243383954235E-4 0
7.687316079352433E-4 0
1.997129023177756E-3 0
-2.7367078001086865E-3 0
-8.546135198368651E-3 0
5.829290009728813E-3 0
1.1835291279365605E-2 0
-2.393709255562204E-3 0
1.2234219630511921E-2 0
-1.4239187874927127E-3 0
9.43885549684085E-3 0
-1.9376992606848246E-3 0
1.277837068343658E-2 0
-2.1493042342109613E-3 0
1.1957906134944156E-2 0
5.695836971000947E-3 0
-9.214555359845918E-3 0
-3.5992906632626625E-3 0
1.1623732659897558E-3 0
-1.408699998782582E-4 0
-6.404869177691666E-4 0
-1.0538894624300771E-4 0
3.077144813934419E-5 0
-1.5000051984105912E-5 0
-1.4260212047996292E-4 0
8.324644219651756E-4 0
1.971871269040375E-3 0
-2.862756388893971E-3 0
-1.1530838947849394E-2 0
9.65253064602949E-3 0
3.1609337764095864E-2 0
-1.3834105128592004E-2 0
-5.2743016431424045E-5 0
4.553987363195531E-3 0
-3.587812283325221E-2 0
6.025939657228355E-1 0
-3.341867977351202E-2 0
4.387018523789391E-3 0
8.431337647950033E-4 0
-1.632631282271733E-2 0
2.781075653735025E-2 0
8.727529405213366E-3 0
-1.221304782728433E-2 0
-2.879796686656309E-3 0
1.4562400473927654E-3 0
-5.941358914017547E-4 0
-8.88549314753882E-4 0
-2.0542426018261176E-4 0
-1.081870868107517E-4 0
-1.6746820778847714E-4 0
-1.9227195789829147E-4 0
-1.4195670439617696E-4 0
7.990671754574589E-4 0
1.983131955595707E-3 0
-2.7539374227733165E-3 0
-8.328546813349148E-3 0
6.090215009217227E-3 0
1.1853740076792402E-2 0
-1.946919163337695E-3 0
1.2518215552895328E-2 0
-1.3782806107101111E-3 0
9.899448589845579E-3 0
-1.5001760916933356E-3 0
1.3144209533975089E-2 0
-2.273342225897304E-3 0
1.1395300707777561E-2 0
5.334604705501665E-3 0
-8.883455348933837E-3 0
-3.1003658845345466E-3 0
1.315512932724809E-3 0
4.961692842853344E-4 0
-1.2186945671051391E-4 0
-4.753909519550288E-5 0
-2.5827221440640203E-5 0
-1.3769755857363439E-5 0
-1.8234725970129476E-5 0
6.982739387261271E-4 0
2.001345159358158E-3 0
-2.8545623652350056E-3 0
-1.1223269858510833E-2 0
1.0115475882569482E-2 0
3.1369062320927336E-2 0
-1.3661889760030374E-2 0
5.777162675178919E-4 0
3.7948567080110097E-3 0
-3.3418679773512025E-2 0
6.034861938036388E-1 0
-3.6045796524066066E-2 0
6.840099313832379E-3 0
-1.4036493508031687E-3 0
-1.6330241147675235E-2 0
3.1015201695435177E-2 0
9.18663296887219E-3 0
-1.1042363119447068E-2 0
-3.0035825395679275E-3 0
1.0526861306167528E-3 0
1.9151490745448183E-4 0
-1.0755543348159197E-4 0
-6.672552147340047E-5 0
-9.54049701414871E-5 0
-7.377280421158109E-5 0
-8.46194374591605E-5 0
-1.7765606985401287E-4 0
8.571408340145951E-4 0
2.078623025404844E-3 0
-2.871521835002095E-3 0
-8.833602934133883E-3 0
6.275702746259733E-3 0
1.2608206295206302E-2 0
-2.096957271874193E-3 0
1.3290737229906213E-2 0
-9.99835595197843E-4 0
1.14807630062186E-2 0
-1.391999861678454E-3 0
1.2643114363701234E-2 0
-2.6582440535783433E-3 0
1.2403190045317187E-2 0
6.343693383000654E-3 0
-8.820553411684709E-3 0
-2.92696328649894E-3 0
1.9048120427833702E-3 0
7.564236984246914E-4 0
-1.3918324706172595E-4 0
-1.1574728903262116E-4 0
1.994355932441062E-5 0
-8.650874343369781E-4 0
5.1143848342371084E-5 0
7.40788937367882E-4 0
2.135190169120285E-3 0
-2.906929183228566E-3 0
-1.2028715606870846E-2 0
1.0369847035496172E-2 0
3.3368221929125245E-2 0
-1.4128541280156273E-2 0
2.1776711045451135E-4 0
4.387018523789407E-3 0
-3.6045796524066066E-2 0
6.154621767411619E-1 0
-3.569216736020728E-2 0
6.836857320822695E-3 0
8.578545960069524E-4 0
-1.4796158432112997E-2 0
3.305220691599802E-2 0
1.0569878031441382E-2 0
-1.1604097660304251E-2 0
-3.209529643315615E-3 0
2.046782301529924E-3 0
5.884663937113365E-4 0
-8.216847972539411E-5 0
8.548656049301753E-5 0
-7.377280421155932E-5 0
1.9608276730745987E-5 0
-1.2049292208531572E-4 0
-1.2724623990548775E-4 0
7.377485707929682E-4 0
1.9280578664890977E-3 0
-2.9510904950707626E-3 0
-8.799901990459373E-3 0
6.329095458848002E-3 0
1.241148558486669E-2 0
-2.6616707806805845E-3 0
1.264386903747961E-2 0
-1.3919998616784546E-3 0
1.1480763006218591E-2 0
-9.999105879744934E-4 0
1.3291077747607485E-2 0
-2.0975245503781046E-3 0
1.2607925190203005E-2 0
6.279243980921469E-3 0
-8.842492314476277E-3 0
-2.8585014525474807E-3 0
2.0666428587277175E-3 0
8.695175510581618E-4 0
-1.9467539310547832E-4 0
-7.914763854257903E-5 0
-8.650874343369697E-4 0
8.502241553890628E-5 0
-1.0554067774084237E-4 0
6.410049634260848E-4 0
1.973464631341699E-3 0
-3.124055015023192E-3 0
-1.1693789711210871E-2 0
1.0650688916871008E-2 0
3.299206560057631E-2 0
-1.4760903186206924E-2 0
8.431337647949952E-4 0
6.840099313832378E-3 0
-3.569216736020728E-2 0
6.154621767411619E-1 0
-3.603967800509594E-2 0
4.359236327850891E-3 0
2.846269383447621E-4 0
-1.4244224414526049E-2 0
3.3527149333126414E-2 0
1.0190796428106098E-2 0
-1.1860783954483565E-2 0
-3.044344490188977E-3 0
2.242636741511709E-3 0
6.662865872646979E-4 0
8.252856103296231E-5 0
-1.9450334390791466E-4 0
-1.5714784124910763E-5 0
-1.691226273847934E-5 0
-6.224499303344926E-5 0
-1.0274368076403015E-4 0
4.741058809539682E-4 0
1.3382173999233484E-3 0
-3.1203913437691196E-3 0
-8.868784305671978E-3 0
5.326199077847755E-3 0
1.1398486188936284E-2 0
-2.273363637471445E-3 0
1.31434349392741E-2 0
-1.5002311635473773E-3 0
9.903152695381532E-3 0
-1.3912867657546865E-3 0
1.2545778602920608E-2 0
-1.990146981196012E-3 0
1.1906334337728698E-2 0
6.04086514727185E-3 0
-8.292630958348361E-3 0
-2.7809951062461938E-3 0
2.0130827272261628E-3 0
7.70219973477965E-4 0
-1.3544857674932428E-4 0
-6.667526986147674E-6 0
-9.767728940405971E-5 0
-6.0275652347479036E-5 0
-1.1594435129901044E-4 0
2.030672060361958E-4 0
1.0375253786858735E-3 0
-2.9861340984012534E-3 0
-1.1058781729675605E-2 0
9.199420892311825E-3 0
3.1006969403008157E-2 0
-1.6326312822717307E-2 0
-1.4036493508031457E-3 0
6.83685732082269E-3 0
-3.6039678005095936E-2 0
6.034738193543742E-1 0
-3.339049161570558E-2 0
3.739415724664066E-3 0
6.690253310071859E-4 0
-1.3790800265513926E-2 0
3.1523390244540685E-2 0
9.967762882609171E-3 0
-1.1124670976586953E-2 0
-2.921776419546044E-3 0
2.088014789224809E-3 0
6.77584284978435E-4 0
-2.7515043888517196E-4 0
-1.3122151055844036E-4 0
-2.6566353333104612E-5 0
4.318377206016067E-5 0
-1.1567639796246856E-4 0
-6.317185473869643E-4 0
-1.49660230718897E-4 0
1.170682908020728E-3 0
-3.605786392845827E-3 0
-9.211191933903176E-3 0
5.69584285586406E-3 0
1.1954816580716007E-2 0
-2.14578705270664E-3 0
1.2778620746735784E-2 0
-1.9508039347262743E-3 0
9.48104605241888E-3 0
-1.5101187520160679E-3 0
1.237128623940757E-2 0
-2.572154889550352E-3 0
1.202630133717455E-2 0
5.666517417842778E-3 0
-8.440665928995561E-3 0
-2.822457212560422E-3 0
2.110695924320845E-3 0
7.357454376710393E-4 0
7.799415499758229E-4 0
-1.312415984182277E-4 0
-1.1289148763888454E-4 0
-2.212152576541865E-4 0
-8.633645576942585E-4 0
-6.185301951344354E-4 0
1.4773889624421187E-3 0
-2.8986390321850087E-3 0
-1.21996918343855E-2 0
8.722406214178463E-3 0
2.7810756537350257E-2 0
-1.633024114767521E-2 0
8.578545960069488E-4 0
4.359236327850882E-3 0
-3.339049161570558E-2 0
6.02593112149804E-1 0
-3.5934047383373566E-2 0
4.680190991001472E-3 0
-2.2883136741788058E-4 0
-1.3660336182196716E-2 0
3.1478384576806864E-2 0
9.774305124024307E-3 0
-1.1709792329183847E-2 0
-2.6760189415768573E-3 0
2.017943801671313E-3 0
9.275574439048322E-4 0
-1.9650986061283223E-4 0
-1.0174036789437279E-4 0
-4.730369295501667E-5 0
-2.2384051738505404E-4 0
-6.244534019222664E-4 0
-8.722186849699464E-4 0
-1.1330255346660525E-5 0
1.1570139454145027E-3 0
-3.437502950092514E-3 0
-8.946930623595925E-3 0
5.612878243514718E-3 0
1.2468170352548295E-2 0
-2.1625048576092197E-3 0
1.2267508983399903E-2 0
-1.7777612808598396E-3 0
9.651942545506465E-3 0
-2.336663778512728E-3 0
1.187613093201912E-2 0
-3.2770496630614558E-3 0
1.1736978080557155E-2 0
5.244201988254467E-3 0
-8.429902653957658E-3 0
-2.7571293149135792E-3 0
2.0924076911682517E-3 0
2.8051298275644397E-3 0
4.986099816585295E-4 0
-2.2652693768838436E-4 0
-4.876959097932875E-4 0
-8.387448813617668E-4 0
-8.289557138492609E-4 0
1.970950290768065E-4 0
1.4575635530511633E-3 0
-3.799880200201734E-3 0
-1.2984383083545383E-2 0
8.727529405213368E-3 0
3.1015201695435164E-2 0
-1.4796158432112995E-2 0
2.846269383447711E-4 0
3.7394157246640664E-3 0
-3.593404738337358E-2 0
6.010279286649242E-1 0
-3.6329968708626634E-2 0
4.659358052803733E-3 0
-1.2616887364291572E-3 0
-1.3343614179105838E-2 0
3.037105903690871E-2 0
9.568369513783957E-3 0
-1.2125244397241735E-2 0
-2.841362039481271E-3 0
2.6366488635811845E-3 0
7.094630766109551E-4 0
-2.4893278997390974E-4 0
-1.9619037193531914E-4 0
-2.644918508938374E-4 0
-4.4416602210717657E-4 0
-6.748685455813809E-4 0
-8.323752682778344E-4 0
-1.0850573772995968E-5 0
1.2186543923804914E-3 0
-3.316372386817563E-3 0
-8.56240649369193E-3 0
6.453080068418807E-3 0
1.249853850478485E-2 0
-2.311191327624499E-3 0
1.2088347489913547E-2 0
-2.3999023982078913E-3 0
9.416375921626523E-3 0
-3.229033972372673E-3 0
1.1860090872988487E-2 0
-4.1185118784248355E-3 0
1.1764179304001672E-2 0
4.9185803993577306E-3 0
-8.578060081410214E-3 0
-2.8353650612925173E-3 0
-4.435921198158516E-3 0
1.975216581107551E-3 0
3.2356568146182485E-4 0
-5.314685615532802E-4 0
-5.937468716625451E-4 0
-6.286624155074045E-4 0
-6.080017260196943E-4 0
1.5192266829494333E-5 0
1.0674895358046953E-3 0
-3.789049379545755E-3 0
-1.2213047827284343E-2 0
9.186632968872193E-3 0
3.305220691599805E-2 0
-1.4244224414526054E-2 0
6.690253310071856E-4 0
4.680190991001441E-3 0
-3.63299687086266E-2 0
6.009853385050392E-1 0
-3.8327019733110916E-2 0
5.6039056064129626E-3 0
-2.5778583243410247E-3 0
-1.3244857800209195E-2 0
3.0036604702778757E-2 0
8.673218041975501E-3 0
-1.2115818427824977E-2 0
-3.928772709920225E-3 0
1.9075699248004684E-3 0
6.95680813733467E-4 0
-3.7067984290426186E-4 0
-3.321038419027383E-4 0
-3.3385619875052314E-4 0
-4.5438126883832856E-4 0
-6.637974885508077E-4 0
-8.598295398100644E-4 0
-6.112037938204012E-5 0
1.0885321675280463E-3 0
-3.1416054468097897E-3 0
-8.816191545061006E-3 0
6.274882114297762E-3 0
1.1947572524664374E-2 0
-2.498307546120951E-3 0
1.1926673886544401E-2 0
-3.1983851555226306E-3 0
9.431617255572329E-3 0
-4.204149693632049E-3 0
1.2159457008575396E-2 0
-5.138260749212809E-3 0
1.2272994691315129E-2 0
4.353053494785215E-3 0
-8.686427617181613E-3 0
-1.598804363894305E-2 0
-3.3950634647380656E-3 0
1.8383175965907778E-3 0
2.656739212783852E-4 0
-5.939525906090045E-4 0
-4.5162051196151037E-4 0
-5.115362569905156E-4 0
-6.746312619152355E-4 0
1.6115217776882953E-5 0
1.4417748632966152E-3 0
-2.8797966866563125E-3 0
-1.1042363119447063E-2 0
1.0569878031441368E-2 0
3.3527149333126414E-2 0
-1.3790800265513917E-2 0
-2.2883136741787743E-4 0
4.6593580528037255E-3 0
-3.832701973311091E-2 0
6.020826656725806E-1 0
-4.090647335949578E-2 0
7.3443894627507845E-3 0
-4.308661159544752E-3 0
-1.3430426056869607E-2 0
3.075466559045767E-2 0
8.284588451987705E-3 0
-1.1540824905539506E-2 0
-2.8549987666158954E-3 0
1.7683165839302072E-3 0
6.737788142687789E-4 0
-4.196790180081266E-4 0
-4.0083937896392735E-4 0
-3.414993287611873E-4 0
-4.6447289379372903E-4 0
-7.548046416039509E-4 0
-1.008238725499459E-3 0
-3.943794465384956E-4 0
1.1664144854626982E-3 0
-2.9108778546267826E-3 0
-8.858577746348444E-3 0
6.189959112016499E-3 0
1.2279831137482301E-2 0
-3.1397425187693084E-3 0
1.1930132613170764E-2 0
-4.183201572210403E-3 0
9.774141411090528E-3 0
-5.247941208702709E-3 0
1.2844494108577808E-2 0
-6.318157846678423E-3 0
1.3091130690619467E-2 0
4.317607590116496E-3 0
1.11301792785335E-2 0
-1.1366987865691423E-2 0
-3.5118800735763457E-3 0
1.672589624010611E-3 0
4.0836199924797E-4 0
-5.586446032865106E-4 0
-4.7723183123870975E-4 0
-5.040156504839785E-4 0
-6.077808046234647E-4 0
2.1372141521539096E-4 0
1.456240047392757E-3 0
-3.0035825395679267E-3 0
-1.1604097660304265E-2 0
1.0190796428106092E-2 0
3.1523390244540685E-2 0
-1.3660336182196703E-2 0
-1.2616887364291602E-3 0
5.603905606412953E-3 0
-4.090647335949577E-2 0
6.046149288865745E-1 0
-4.451793396676151E-2 0
1.0319566746676334E-2 0
-6.715321358900566E-3 0
-1.2729246730761336E-2 0
3.1417003734779625E-2 0
6.549714366262693E-3 0
-8.569151873440099E-3 0
-2.765060772384952E-3 0
1.6197236390501951E-3 0
6.369365464569155E-4 0
-3.6361035725619544E-4 0
-4.208510163717993E-4 0
-3.733220671280947E-4 0
-4.844799363014504E-4 0
-7.101431355934718E-4 0
-6.934150276487498E-4 0
5.836446598166625E-4 0
2.0033356284737164E-3 0
-2.957025038237826E-3 0
-8.380106724589251E-3 0
5.719447301806822E-3 0
1.1820819032694265E-2 0
-4.06324399657435E-3 0
1.218290996313753E-2 0
-5.24116193940621E-3 0
1.0344132765280342E-2 0
-6.236806291789935E-3 0
1.3626711182025469E-2 0
-6.8551866768612755E-3 0
1.2971755774186633E-2 0
4.1932127313103924E-2 0
7.547465618925089E-3 0
-1.1291767592353228E-2 0
-3.373542164144485E-3 0
1.411910794657704E-3 0
4.680250955186617E-4 0
-4.635826117713201E-4 0
-5.220429669744791E-4 0
-6.085049024231045E-4 0
-8.525067295300153E-4 0
-5.941358914017721E-4 0
1.0526861306167585E-3 0
-3.2095296433156174E-3 0
-1.1860783954483553E-2 0
9.967762882609156E-3 0
3.1478384576806864E-2 0
-1.3343614179105826E-2 0
-2.5778583243410425E-3 0
7.344389462750791E-3 0
-4.451793396676149E-2 0
6.088731614102562E-1 0
-4.9791061988954013E-2 0
1.4692066179354417E-2 0
-9.499592273346683E-3 0
-1.3359093323631615E-2 0
1.5624518514099829E-2 0
4.80039350219319E-3 0
-8.834774768066253E-3 0
-2.5702014437748483E-3 0
1.596748762241312E-3 0
4.982502416149876E-4 0
-3.212009530669352E-4 0
-3.5318022084720064E-4 0
-2.8948342771176774E-4 0
-2.2604688673715255E-4 0
-2.172839953150199E-5 0
-1.039803761481603E-5 0
7.980678397372031E-4 0
2.0249987174152076E-3 0
-2.8924649184853004E-3 0
-8.524333771918016E-3 0
5.241851564219373E-3 0
1.1781314797693399E-2 0
-5.125508931454941E-3 0
1.284878379713819E-2 0
-6.2363925021638E-3 0
1.1039229725584876E-2 0
-7.158787145557781E-3 0
1.3830163235561877E-2 0
-6.215126284955707E-3 0
-2.2020501858480385E-2 0
3.1298840542737474E-2 0
7.1483286310464016E-3 0
-1.155288664664366E-2 0
-2.8626239228685606E-3 0
1.284128712180314E-3 0
2.669690217689028E-4 0
-4.5793670615710115E-4 0
-6.291491365442766E-4 0
-8.15023192903249E-4 0
-8.885493147538893E-4 0
1.9151490745447902E-4 0
2.0467823015299304E-3 0
-3.044344490188971E-3 0
-1.1124670976586957E-2 0
9.774305124024302E-3 0
3.0371059036908715E-2 0
-1.3244857800209201E-2 0
-4.308661159544766E-3 0
1.0319566746676348E-2 0
-4.9791061988954034E-2 0
6.151951172493965E-1 0
-5.651054182337544E-2 0
1.7776675132302494E-2 0
-7.422032731993485E-3 0
-7.120309912767966E-3 0
1.1364908354647279E-2 0
5.015309105697368E-3 0
-9.23102863002924E-3 0
-2.430942904085202E-3 0
1.841111704644565E-3 0
4.3009610493716235E-4 0
-3.280748515932237E-4 0
-1.8908060644286053E-4 0
-1.3555569254726764E-5 0
6.929293049597193E-5 0
-3.915486807637112E-5 0
-1.5338544574473468E-4 0
8.837197497411648E-4 0
2.004698867954283E-3 0
-2.8609803651912903E-3 0
-8.450486555387824E-3 0
4.915645815860752E-3 0
1.2275331812161273E-2 0
-6.317762442449085E-3 0
1.3625420363928166E-2 0
-7.15999933327732E-3 0
1.1815411239003556E-2 0
-7.513342843739544E-3 0
1.3508376046052237E-2 0
-1.699041805344746E-3 0
-1.736203217889727E-2 0
3.203015527674907E-2 0
7.149918202295238E-3 0
-1.2402544983011441E-2 0
-2.453021368699476E-3 0
1.595391900693045E-3 0
1.1510740302874232E-4 0
-5.214923412701401E-4 0
-4.818911727180739E-4 0
-2.0542426018261696E-4 0
-1.0755543348159098E-4 0
5.884663937113494E-4 0
2.2426367415116963E-3 0
-2.921776419546034E-3 0
-1.1709792329183849E-2 0
9.568369513783951E-3 0
3.0036604702778746E-2 0
-1.343042605686959E-2 0
-6.715321358900582E-3 0
1.4692066179354408E-2 0
-5.651054182337539E-2 0
6.23401247209259E-1 0
-6.1756121907503174E-2 0
1.3928544113252781E-2 0
1.6103860219602976E-2 0
-4.999063174655968E-3 0
1.0957699317860612E-2 0
5.605437524034124E-3 0
-9.427843383971936E-3 0
-2.85165416644032E-3 0
2.0631805480989256E-3 0
6.436684216468746E-4 0
-2.5913593036863984E-4 0
-1.1655026863380113E-4 0
-3.1910159119832434E-5 0
-5.240245932427626E-5 0
-1.2769288682904872E-4 0
-1.8272979530905683E-4 0
7.967948766877751E-4 0
2.127607551101094E-3 0
-2.7569025277460577E-3 0
-8.580173564151172E-3 0
4.351126562223804E-3 0
1.3088734694736322E-2 0
-6.857861625841317E-3 0
1.3828113609154213E-2 0
-7.514290927325884E-3 0
1.1504752033681225E-2 0
-6.535611277524983E-3 0
4.211273953984445E-3 0
2.8073977228710136E-4 0
-1.81039077684868E-2 0
3.1822575494520215E-2 0
8.697206024133474E-3 0
-1.3071920229516573E-2 0
-3.0556900231417253E-3 0
1.9065152626676408E-3 0
3.7931853700681067E-4 0
-2.819887731535071E-4 0
-1.081870868107497E-4 0
-6.672552147339438E-5 0
-8.216847972540037E-5 0
6.662865872647052E-4 0
2.0880147892248114E-3 0
-2.676018941576858E-3 0
-1.2125244397241735E-2 0
8.673218041975487E-3 0
3.0754665590457676E-2 0
-1.2729246730761314E-2 0
-9.499592273346699E-3 0
1.7776675132302515E-2 0
-6.175612190750317E-2 0
6.252044394988783E-1 0
-5.42501082682817E-2 0
-6.301019713865803E-3 0
1.134096199569638E-2 0
-4.3747597556042525E-3 0
1.0925892156851262E-2 0
5.814136846596313E-3 0
-9.197824315986654E-3 0
-3.0845008077615504E-3 0
2.0125847551930973E-3 0
7.642758379290248E-4 0
-2.1151699987319306E-4 0
-1.612337849520369E-4 0
-2.84024157703838E-5 0
1.719387803524547E-5 0
-7.639795725341535E-5 0
-1.2081608512309033E-4 0
7.543778662784642E-4 0
2.1005400220040545E-3 0
-2.834217954005729E-3 0
-8.687936899869532E-3 0
4.315524973972698E-3 0
1.2969629275824079E-2 0
-6.216766669005392E-3 0
1.3507472115624964E-2 0
-6.5358783514001435E-3 0
1.0226456414036625E-2 0
-5.5388126897373414E-2 0
1.8161608302399604E-3 0
-2.255947292568079E-4 0
-1.7365821330272098E-2 0
3.13095617282871E-2 0
9.583110211117268E-3 0
-1.2660975168885659E-2 0
-3.376329566061178E-3 0
1.924679869720791E-3 0
6.198188241460283E-4 0
-1.6746820778847923E-4 0
-9.540497014148902E-5 0
8.548656049301124E-5 0
8.252856103297276E-5 0
6.77584284978434E-4 0
2.017943801671317E-3 0
-2.8413620394812872E-3 0
-1.211581842782497E-2 0
8.284588451987705E-3 0
3.141700373477963E-2 0
-1.3359093323631626E-2 0
-7.4220327319934705E-3 0
1.392854411325279E-2 0
-5.425010826828172E-2 0
6.172162808151007E-1 0
