%%MatrixMarket matrix array complex general
%
50 50
4.999999999999996E-1 0
2.8833392943345094E-18 0
3.8162234665089725E-18 0
-2.1575776102430012E-18 0
-2.8180262665054868E-18 0
8.875300623769213E-19 0
-2.418040455364728E-18 0
-3.901595000587385E-18 0
-1.301969980771796E-18 0
2.9347920368107345E-19 0
1.4507875168979252E-18 0
-5.91054311912934E-19 0
2.3253130228266872E-18 0
2.325313022826682E-18 0
-5.907247395722908E-19 0
1.4492910365587716E-18 0
2.971682344632488E-19 0
-1.3087916528944894E-18 0
-3.8915811446739995E-18 0
-2.428322825796654E-18 0
8.849064936391277E-19 0
-2.7742663096654863E-18 0
-2.296270479375791E-18 0
4.026305694298567E-18 0
2.9255090894259395E-18 0
-2.0538704656633684E-17 0
-1.4535482860228655E-19 0
-1.1819001770838457E-19 0
-2.6556534412251195E-19 0
9.213251124370331E-20 0
9.784382683889586E-20 0
-8.664186190549024E-20 0
-8.33788837812599E-20 0
-1.4353741923995247E-19 0
-1.0723387277639458E-19 0
-6.814894876009177E-20 0
3.008871703904862E-20 0
8.30411722718498E-20 0
8.304117227186319E-20 0
3.007349560195245E-20 0
-6.807983318657469E-20 0
-1.0743186330504151E-19 0
-1.4303635079152166E-19 0
-8.458628727604931E-20 0
-8.393507626149287E-20 0
9.223617793434143E-20 0
1.022562176215027E-19 0
-2.8062501324548213E-19 0
-1.0306914619645745E-19 0
-1.5999906710897077E-19 0
8.408530784604339E-19 0
4.9999999999999967E-1 0
-1.7495590786270255E-17 0
1.296848610375304E-17 0
1.5318339228728793E-17 0
-1.3189978875267412E-18 0
-1.9879336033776118E-17 0
1.5015423977691256E-17 0
3.583545271522433E-18 0
-1.103346888370035E-17 0
1.2828679184036927E-17 0
-9.872308874125828E-18 0
-5.398297045825811E-19 0
8.746698876957621E-20 0
4.3319322552932945E-18 0
3.38326734464525E-19 0
-1.6768410268867538E-18 0
1.775503645363893E-18 0
-3.9959938876345963E-19 0
-4.944479226419967E-18 0
-1.2147860759747941E-18 0
8.347767707615148E-19 0
-2.946424852031632E-20 0
5.348364673527858E-18 0
4.0783119105949905E-18 0
2.484815698106596E-20 0
1.2188771782811239E-17 0
-5.575592204691263E-18 0
1.1607040585577546E-17 0
-2.636856657963916E-18 0
-1.1056799889929088E-18 0
8.714049432178056E-18 0
-3.508334540693612E-18 0
-2.7778751346461666E-18 0
9.897023058527504E-18 0
-9.917930801441091E-18 0
6.1111620183045786E-18 0
-2.0666347266404733E-18 0
2.0689095400646598E-18 0
-6.646935704093035E-18 0
3.8449756943497195E-18 0
1.0842868765518103E-18 0
1.2245548855831201E-18 0
1.4612443276314162E-18 0
-1.2128767488155961E-18 0
-1.3702291905164939E-18 0
-4.668050928499455E-19 0
8.686037146783522E-19 0
-5.853142796345667E-19 0
-5.882879402345725E-19 0
2.8682884235246135E-18 0
-1.4893119354611014E-17 0
4.9999999999999956E-1 0
3.418296218524563E-17 0
-2.439730006415153E-17 0
6.22023963151153E-18 0
1.0091090468391065E-18 0
-5.022008949863691E-19 0
3.7448667788430955E-18 0
-4.412746358390803E-18 0
4.329852121054534E-18 0
-4.593266669887641E-18 0
1.8343947661824314E-18 0
-2.8102094926456723E-18 0
4.399052215561943E-18 0
1.0979275934951443E-18 0
-7.883516688112603E-19 0
-1.034181906638674E-18 0
-1.6272508937968387E-18 0
1.1422005995063762E-18 0
-2.099813986175708E-18 0
-3.980343599689249E-18 0
-3.465595514026128E-18 0
9.281013261800107E-19 0
6.2628426097578974E-18 0
1.296474865874114E-19 0
5.932315511763249E-18 0
2.606262376093248E-17 0
-5.281535354858417E-18 0
3.294336016262024E-18 0
8.570373087816781E-18 0
5.956332875408698E-19 0
1.3576149395121998E-18 0
-6.6133234250173675E-18 0
1.3084903127935955E-17 0
-1.2722020978068508E-17 0
9.9679690152774E-18 0
-2.523698258884377E-18 0
2.5355673018547443E-18 0
-6.904291297688141E-18 0
3.827585359267005E-18 0
9.804714721937922E-19 0
2.6499694289005737E-18 0
1.2576965226197622E-18 0
-1.7008913873459394E-18 0
-1.398168995050519E-19 0
9.041841714173929E-19 0
5.304217465317878E-19 0
-1.3729553317978087E-18 0
8.625306902240436E-21 0
9.244639524040804E-19 0
-7.923071528507002E-18 0
3.715474559576833E-17 0
4.999999999999997E-1 0
-7.596547107115871E-17 0
-7.1184874523338E-18 0
2.5500728326757832E-17 0
-1.0280053590818581E-17 0
-2.920782318101008E-18 0
6.757811672601994E-18 0
-9.506753020326618E-18 0
8.461695332982727E-18 0
-6.216784573788979E-19 0
-1.4379435640629656E-19 0
-1.9714166667016853E-18 0
1.8035798916855685E-18 0
-5.406281249250007E-20 0
-3.632904721281528E-18 0
2.052121175863181E-18 0
1.6110932673172653E-18 0
-3.9727825133259525E-18 0
-7.49477771727248E-18 0
-8.294774933802107E-18 0
-5.366549173149245E-18 0
9.031158028944229E-18 0
9.592941589118216E-20 0
5.639055138405146E-18 0
2.4796045463841178E-17 0
3.6846114047754366E-17 0
1.0944033661476924E-17 0
1.0099954421520011E-17 0
-1.0316929297258316E-17 0
9.890941167708948E-18 0
-1.014950452407363E-17 0
9.030934331459938E-18 0
-7.661036086330186E-18 0
8.975519777527274E-18 0
-1.5712073486058431E-18 0
1.5799895501683386E-18 0
-1.5621019661048977E-18 0
2.3917212435517292E-20 0
3.645064916060634E-19 0
2.768549470611367E-18 0
-3.7243010728553645E-19 0
-1.0880181181156628E-18 0
2.815356085537624E-18 0
2.593731865149681E-18 0
-5.502995620828103E-19 0
-1.8797280559698452E-18 0
8.764671538501528E-19 0
-1.3080958086323144E-18 0
2.3584632834361866E-17 0
-3.2408353519133274E-17 0
-7.068069390853367E-17 0
4.9999999999999967E-1 0
-5.91151677078962E-17 0
3.5972134794400045E-17 0
7.081466641363274E-18 0
-1.5629793270447965E-17 0
1.1894212449876287E-17 0
-1.0215450783576585E-17 0
1.0037131228177067E-17 0
-1.8977041851172114E-18 0
2.0207783186712877E-18 0
-5.083137456529255E-18 0
3.4133986465325554E-19 0
-2.786701561181966E-18 0
1.2153367039924288E-18 0
4.368734990596898E-18 0
9.126996405053533E-20 0
-6.720259976733028E-18 0
-1.2297924953134863E-17 0
-9.310564366571244E-18 0
-1.5898821916859737E-18 0
2.5239430617799776E-18 0
-8.889423982284171E-21 0
-1.357255425720445E-18 0
-9.505240486078836E-18 0
9.367546067791567E-18 0
-2.59715901559697E-17 0
-4.2128007458972905E-18 0
-9.889764313641E-18 0
8.140009766082699E-18 0
-7.246521564863301E-18 0
1.5859831700745074E-18 0
2.754074845287753E-19 0
3.2711055914649036E-18 0
-5.278888136603456E-19 0
5.270749995402948E-19 0
3.4050369625361498E-18 0
-3.643152437834549E-18 0
3.172677277490779E-19 0
7.636211629552477E-19 0
-1.5260907373441094E-18 0
7.982303487672789E-19 0
3.891824028022769E-18 0
2.2183404763904075E-18 0
-9.799825092276107E-19 0
-1.174228064681582E-18 0
7.157173448201855E-19 0
-2.3056815629795705E-19 0
-3.494156425048936E-18 0
8.59233634661772E-18 0
-1.1756948869742577E-17 0
-4.8187740240909684E-17 0
4.9999999999999956E-1 0
4.6606759029389436E-17 0
2.3844981097780197E-17 0
-1.8767041701213872E-17 0
4.298712267584785E-18 0
-4.951721137208017E-20 0
4.184595927486751E-18 0
4.0416784164989756E-19 0
5.789845120266457E-20 0
-9.195517876779795E-19 0
-3.995677917993442E-18 0
-5.504531761925024E-18 0
4.158191552104469E-18 0
6.7209563998637535E-18 0
8.68191599977331E-19 0
-6.936755499425169E-18 0
-9.357758360756316E-18 0
-3.3215483995817267E-18 0
3.476052217707858E-19 0
-6.34240334498412E-18 0
-4.236319253953444E-20 0
-2.626422283209249E-18 0
-8.489193584916759E-20 0
3.1985064245656943E-18 0
2.2602506160285655E-17 0
-1.1125711600563667E-17 0
-1.1311253015596326E-17 0
-7.557247022734567E-19 0
7.0426652608109985E-19 0
-3.5687473565360964E-18 0
4.850844808216292E-18 0
-1.4606999599545064E-18 0
-3.454155818980453E-19 0
3.415372918838113E-19 0
3.506635063264665E-18 0
-3.3187199627789326E-18 0
1.5047960098285406E-19 0
-1.2281547906317285E-18 0
-7.054776816493627E-20 0
2.491423701542526E-18 0
1.431890574385655E-18 0
6.742024273840123E-20 0
-2.1143112783301717E-19 0
7.179619559768994E-19 0
5.360790354539424E-19 0
-3.9572944259266275E-18 0
-1.4493680523050312E-17 0
7.206141021103458E-18 0
3.065928255715133E-17 0
3.9716404872897746E-17 0
3.9241686964883E-17 0
4.9999999999999967E-1 0
7.209792245014013E-17 0
-4.387512670232898E-17 0
4.120935536970725E-18 0
4.666276165740743E-18 0
5.247327403723454E-18 0
-9.286557878038063E-19 0
-9.23373301925638E-19 0
4.198097292520481E-18 0
-1.077376004069323E-17 0
-4.361215413479537E-18 0
4.206099781511622E-18 0
1.0008948490634105E-17 0
4.229926296412123E-18 0
2.5043926560270857E-19 0
5.245806034261501E-18 0
3.9122530198935754E-18 0
-1.437658130274582E-18 0
-1.8492836831289626E-18 0
2.0197949379276046E-20 0
-3.5617529606686075E-18 0
-9.91410674347133E-19 0
7.432296468787424E-18 0
5.26908180448632E-18 0
1.5178060081809956E-17 0
-2.613831141914625E-17 0
-2.4475108215299075E-18 0
6.238843823441812E-18 0
-3.3933840131668262E-18 0
3.0209006307399227E-18 0
-1.6348823127769012E-19 0
-4.2345283228232797E-19 0
4.253019258158789E-19 0
-8.333610364353806E-21 0
5.420213938145359E-19 0
-1.2517335822533116E-18 0
-8.617398327304608E-19 0
2.4028946284287318E-18 0
1.4895675866422904E-18 0
-1.4042790808229441E-18 0
-1.590857461549104E-18 0
5.928394457817099E-19 0
2.0290133842284038E-18 0
1.0309191871467814E-18 0
1.2879642197273362E-18 0
1.2353445691041412E-17 0
-7.573916403603926E-18 0
-1.3460758883853835E-17 0
1.4194688656527783E-18 0
2.186252406525001E-17 0
5.501739912901358E-17 0
4.9999999999999967E-1 0
4.3975715847402254E-18 0
-4.4525023002545635E-18 0
1.3783471700504638E-17 0
-8.641897823110768E-18 0
-5.420690220383417E-19 0
-3.6760831489192325E-18 0
3.915055687356217E-18 0
-1.3855458526067397E-17 0
1.1821073433995713E-18 0
1.7340638016679337E-17 0
1.3085522103053074E-17 0
9.721474164812912E-18 0
9.515571232870786E-18 0
6.890727974564775E-18 0
2.3283352820138655E-18 0
-1.1727170464859969E-18 0
1.4418080050930553E-18 0
-1.447271841298604E-20 0
1.3400756826240272E-18 0
-4.1031627720799626E-19 0
-9.016184820710828E-18 0
-1.500444146356304E-17 0
-1.076990040875968E-17 0
1.526057975222194E-17 0
1.587177335496734E-17 0
2.886801048340739E-18 0
-2.5441348830113728E-18 0
-1.6825056075663285E-18 0
1.325091969888109E-18 0
4.0771091429087695E-19 0
-4.090358710737311E-19 0
-2.980095351712349E-18 0
3.235910162631949E-18 0
-2.271056841795685E-18 0
-2.558005007707465E-18 0
-1.0251794620661095E-18 0
-1.4793516522884634E-18 0
-1.172588999501273E-18 0
-4.970106490341942E-19 0
-1.9801404812082116E-19 0
-3.67000481033094E-19 0
-1.98245571282747E-19 0
2.9445407992767154E-18 0
1.978300224286971E-18 0
7.916643233944586E-18 0
2.7100201473425436E-19 0
-1.3096526317937352E-17 0
-1.7195865762114138E-17 0
-3.393288485398708E-17 0
7.091358199176058E-18 0
4.999999999999996E-1 0
1.9610354294226073E-17 0
6.559789069389161E-18 0
-1.6060204055112955E-17 0
-1.6339233196259422E-18 0
-3.744910022588742E-18 0
-2.1763126217063993E-18 0
-1.3087538550449519E-17 0
1.7708742863901148E-17 0
2.171894872540067E-17 0
1.6672422892224884E-17 0
8.185394203533795E-18 0
-1.0811960329845652E-18 0
-5.8355944965218425E-18 0
-3.3105798978116567E-18 0
-2.5696461924041766E-19 0
-2.110456924049506E-18 0
-6.593765480184062E-20 0
2.7696486632782873E-18 0
2.7745180377207838E-18 0
3.8033652116422175E-18 0
5.923961716382265E-18 0
3.875016031650722E-18 0
-4.572051982383623E-18 0
-4.558050666506022E-18 0
1.1961695012746243E-17 0
-8.685917151965845E-18 0
-5.09893670364433E-18 0
2.4491839453713212E-18 0
1.1152020781108169E-18 0
-1.1212385766099022E-18 0
-1.6391040588281044E-18 0
1.9332367970064268E-18 0
-5.378018009281383E-19 0
-5.605790096656446E-18 0
-6.2705812505940214E-18 0
-2.5516375354228523E-18 0
1.2116935631507864E-18 0
1.1153157779599206E-18 0
-8.321533624835871E-19 0
-2.6796778832944625E-18 0
-2.2778653578232962E-18 0
1.2469815614809814E-18 0
-7.132006919698896E-18 0
-5.049171066436294E-18 0
3.656829373757454E-18 0
8.790810744582935E-18 0
2.825415719527264E-18 0
3.552347571590095E-18 0
-6.749777418490136E-18 0
1.0328340531328531E-19 0
4.9999999999999967E-1 0
-2.5929521797337898E-17 0
2.5432354758089714E-17 0
-3.8105325458057456E-18 0
-6.419492898608733E-19 0
7.002366289014787E-18 0
-9.735790005916422E-18 0
1.0588649000762739E-17 0
1.8540549959183678E-17 0
-3.5631145027006636E-18 0
-1.2826597723695019E-17 0
-9.632526373084009E-18 0
-1.8201427747240625E-18 0
1.507196428491223E-18 0
8.347680958981791E-19 0
-8.94430342089017E-19 0
-5.537234946971343E-21 0
-6.302007286081427E-18 0
-5.788797707770413E-18 0
-1.0770789819547058E-18 0
1.7766429649248526E-18 0
1.5443890483893548E-18 0
1.4413527429551813E-18 0
6.271002715282778E-18 0
6.469832717118151E-18 0
-1.0819202842274465E-17 0
2.7522909234051573E-18 0
-1.4977104429592462E-18 0
-5.863158070345221E-19 0
5.858088810519177E-19 0
1.1425635770328231E-18 0
9.125299165919586E-19 0
2.1115921485420775E-18 0
1.2131276544441032E-18 0
1.2241922248547206E-18 0
2.9137406728223003E-19 0
-1.978502870866317E-18 0
-2.010183843093232E-18 0
3.7625702314006987E-19 0
2.713373040571932E-18 0
1.9767252905595215E-18 0
1.2820528671437589E-18 0
7.111667651105914E-18 0
1.9745341247399508E-18 0
-7.596967644710019E-18 0
-9.751855151694746E-18 0
-4.5705271156422574E-18 0
-3.2048500380344535E-18 0
1.2945549886082605E-17 0
1.6835950872263913E-17 0
-2.6219275239445297E-17 0
4.999999999999997E-1 0
-6.391730143156461E-17 0
4.170868648929639E-18 0
-3.724036726008831E-18 0
4.366127895273666E-17 0
4.1671526780702535E-17 0
8.859553925506963E-18 0
-2.777173865407499E-18 0
-2.0305453184009847E-18 0
8.520248667421919E-20 0
2.478698122434739E-18 0
1.664871631138487E-20 0
-1.0145999877976391E-18 0
2.7809302829057124E-18 0
3.596672206352657E-18 0
3.424034381703935E-21 0
6.638734917699984E-18 0
5.9270362204855024E-18 0
-1.1229092679063813E-18 0
-6.81523087627179E-18 0
-4.925354521753543E-18 0
1.927817091799109E-18 0
-2.6717192539773597E-18 0
-1.1440494224481693E-17 0
-3.515449390451017E-18 0
-3.029729635388335E-18 0
-1.0568159925932187E-17 0
5.553016935758833E-19 0
-5.549882280991044E-19 0
5.302615614919685E-18 0
-3.2721780201773577E-18 0
-5.862769011344963E-19 0
1.0751802065967687E-18 0
2.8788316395211983E-19 0
1.7178060021690416E-18 0
3.622672257381039E-18 0
4.511497449122699E-18 0
3.1659285549734217E-18 0
-1.3222790688918325E-19 0
-1.3475707498244857E-18 0
-4.245919193584511E-19 0
-5.584111505333394E-18 0
-2.599770402082301E-18 0
5.753839399442814E-18 0
5.095915540338134E-18 0
2.154914576139031E-18 0
7.80197236025253E-18 0
-9.661050576678938E-18 0
-2.5170499379218684E-17 0
1.86563444965507E-17 0
-3.968643548663013E-17 0
4.9999999999999967E-1 0
2.341102754209542E-18 0
7.569220804435601E-18 0
7.465623532669034E-17 0
3.928076292506394E-17 0
8.985713564586241E-18 0
-2.915115235525421E-18 0
3.698534896412805E-18 0
3.280930053558388E-18 0
1.3689296971672733E-18 0
7.860929238432067E-19 0
1.6729192016160633E-19 0
1.5718557374210208E-18 0
-1.6029923470293347E-18 0
5.932530629315354E-20 0
-2.5256940993373548E-18 0
-1.4909580476457743E-18 0
2.9058215081837284E-18 0
5.814319513336568E-18 0
1.5423415270187208E-18 0
-6.286224278759933E-18 0
2.3991695452764122E-18 0
1.2697293467429009E-17 0
-8.37273442577581E-18 0
1.6162203120169236E-17 0
-1.9852669977121424E-17 0
6.785120029822559E-19 0
-6.730808555829816E-19 0
-8.834757948386677E-18 0
-5.227846868975389E-18 0
-3.831544908177143E-18 0
-2.6454138421112265E-19 0
4.815757159468708E-19 0
-1.828249119015188E-18 0
-3.460090792553202E-18 0
-3.691107102104825E-18 0
-2.121759696833912E-18 0
1.667282033363986E-19 0
1.5604086303832787E-18 0
-1.5356246126319988E-18 0
-4.206127198755365E-19 0
1.5777914132451326E-18 0
-1.1169735716943988E-18 0
-2.827061867993641E-19 0
2.026966286116741E-18 0
-5.91339371047949E-19 0
1.735665153811416E-18 0
2.017634559830022E-18 0
-1.290084118365912E-18 0
3.911441356267519E-18 0
-2.3287438523112103E-18 0
4.999999999999995E-1 0
-7.245138356724487E-17 0
2.9153140670338837E-18 0
-7.931206553686596E-19 0
3.6775734923511155E-18 0
-1.0308505326721806E-18 0
-2.276050226831107E-18 0
1.6217030805906486E-18 0
1.1939649984177645E-18 0
1.5640500209771742E-18 0
1.9964303801208286E-19 0
-2.7367423369397622E-18 0
-5.348769987924421E-19 0
-6.241704876494587E-20 0
1.3160721288734064E-18 0
2.0541709984360857E-18 0
1.4705303769699752E-18 0
-3.103216420121014E-19 0
-1.3816108469599791E-18 0
-2.451947587838385E-19 0
2.5960241328907613E-20 0
-1.1674612304263289E-18 0
1.036472307074941E-18 0
1.5745430382016603E-19 0
-1.6537108388654418E-18 0
-4.263048390470529E-18 0
-8.317427339148892E-18 0
1.6562806813363196E-18 0
-1.6285441380095398E-19 0
-1.0482876346520232E-18 0
1.1576754217987038E-18 0
-3.7937743595358254E-20 0
2.4170925434918844E-19 0
1.3872279918472096E-18 0
3.196975293801882E-19 0
-1.4838165390386735E-18 0
-2.0916608815973457E-18 0
-1.3844970207388402E-18 0
-1.5356246126320042E-18 0
-5.822443357036201E-19 0
-2.5965187101525088E-18 0
1.1563362847449564E-19 0
1.5841159377042693E-18 0
1.1976754861746923E-18 0
1.6112003444836854E-18 0
-2.266870323276526E-18 0
-1.0369481489174538E-18 0
3.680854769246132E-18 0
-7.944492414786661E-19 0
2.9156066637506982E-18 0
-7.24513835672449E-17 0
4.999999999999995E-1 0
-2.328413407490633E-18 0
3.90994091428193E-18 0
-1.286359121883754E-18 0
2.0106183300850673E-18 0
1.746383923184585E-18 0
-6.035656483043161E-19 0
2.0300644886823706E-18 0
-2.543142908603117E-19 0
-1.2194687570221285E-18 0
1.7376775189789967E-18 0
-5.307619534464921E-19 0
-6.241704876496386E-20 0
-1.3293791566609163E-18 0
-2.064991126428876E-18 0
-1.4948425064506874E-18 0
3.1875624235552127E-19 0
1.3905683101216783E-18 0
2.372628195767424E-19 0
-3.3593459530462237E-20 0
1.1543205838806124E-18 0
-1.0462894155847219E-18 0
-1.6369324313559422E-19 0
1.6564654181083216E-18 0
-8.595824187741347E-18 0
-4.263048390470529E-18 0
-1.6535274955943487E-18 0
1.566218019179584E-19 0
1.0384524003909926E-18 0
-1.1707701962407606E-18 0
3.019398932144279E-20 0
-2.4939339118106684E-19 0
-1.378783900965705E-18 0
-3.1033611811909083E-19 0
1.4581257182725052E-18 0
2.082225047881617E-18 0
1.369849333747882E-18 0
-4.2301388104126884E-19 0
1.851071829299733E-18 0
2.52750785008934E-18 0
-5.980372891892312E-19 0
-1.9302039631414498E-18 0
9.130456682336164E-19 0
4.858208766650809E-18 0
3.3188040489906477E-18 0
-7.610074444834085E-18 0
-3.821235422158382E-18 0
5.4103143879375236E-17 0
8.282937375865556E-17 0
7.569114066252895E-18 0
2.3413616357801885E-18 0
4.999999999999996E-1 0
-5.544159050791638E-17 0
-8.258964283956984E-18 0
-5.3348159469861014E-18 0
-7.97549410190182E-18 0
-4.0972544037055886E-18 0
-4.739627983933846E-18 0
-2.2201159950162557E-19 0
3.934143373136138E-18 0
-3.4075166399780596E-18 0
-1.797396033541688E-19 0
5.9321917718645E-20 0
3.7725719312969914E-18 0
3.782703066534754E-18 0
-1.915854107251496E-20 0
-3.958633127394765E-18 0
-3.1216454078262865E-18 0
2.615772061184356E-18 0
3.878815034706334E-18 0
-7.800943500723697E-19 0
8.77429621023715E-19 0
-1.7068813829944867E-18 0
-4.454391275227805E-18 0
-6.72932382321272E-19 0
6.783632195013702E-19 0
-3.4415218540791214E-17 0
-6.270032650634133E-18 0
5.3987405760000266E-18 0
-1.2722027135067378E-18 0
-3.78503176534047E-19 0
2.0576575943234923E-18 0
3.707009325109623E-18 0
3.788966898933422E-18 0
2.1771193592918255E-18 0
7.025181875944061E-19 0
-1.8577525019439793E-18 0
1.27488751063505E-18 0
2.3584943930227134E-18 0
2.129486773842632E-18 0
4.932279975095593E-19 0
-1.2188617906494949E-18 0
-3.2227338710679687E-18 0
-7.35363684225368E-18 0
-8.839220987253478E-18 0
-1.0440093999144354E-17 0
-1.8105754993582367E-17 0
5.072510469757398E-17 0
5.790962295446645E-17 0
-3.723552062788789E-18 0
4.169693152284818E-18 0
-5.654832237859067E-17 0
4.999999999999997E-1 0
-2.2251891411504648E-17 0
2.8501727005003326E-17 0
2.2855288662056425E-17 0
8.795222850862028E-18 0
8.81738654810292E-18 0
2.2472413277899396E-18 0
-6.555642539399004E-18 0
6.817249837485119E-18 0
8.016979863957597E-19 0
3.4394207916756704E-21 0
-7.214360973996253E-19 0
1.5941634848396427E-18 0
4.7002328516471154E-18 0
4.140102354708305E-18 0
7.957525038184826E-20 0
-1.8545213476062984E-18 0
2.597826146414124E-18 0
4.946210856253582E-18 0
-7.357790831524179E-18 0
-4.3073724609098E-18 0
7.959099329348656E-18 0
-5.556623966795279E-19 0
5.559772707602531E-19 0
-8.871903785601353E-18 0
1.5991109612925826E-17 0
-6.4449782933384075E-18 0
6.01566774796676E-18 0
-6.890809223091825E-19 0
-2.6931684157336655E-18 0
-4.816712842266968E-18 0
-5.036626578764507E-18 0
-3.195612216541126E-18 0
-3.733314050038849E-18 0
2.8241072517563882E-18 0
1.264776948298431E-18 0
-2.102186987045443E-19 0
4.200554372608737E-19 0
1.4232725205201038E-18 0
-1.6340415723212728E-18 0
-7.1735812441091E-18 0
-8.026240863734882E-18 0
-1.973658624397078E-18 0
1.1385162939353999E-17 0
3.88261064152102E-18 0
1.5257701270714472E-17 0
2.1284142242676963E-17 0
-6.432351984205951E-19 0
-3.807517664327155E-18 0
-2.2153423293539026E-17 0
3.6485494759999015E-18 0
4.999999999999996E-1 0
-4.810414006889006E-17 0
-2.61788356375559E-17 0
-4.0965970498025825E-18 0
-1.598880002954991E-17 0
-6.7054978720179975E-18 0
1.2450894418429196E-17 0
-1.9786910581901628E-17 0
-3.6830799823427174E-18 0
-5.5773214958202184E-21 0
-2.97834552876245E-20 0
-7.608238007923935E-20 0
-3.1221540452144157E-19 0
-5.308049659171108E-19 0
5.051579209201243E-19 0
2.5607182554167077E-18 0
1.2364828168915208E-18 0
-2.9245574313924664E-18 0
-3.182841219465896E-18 0
4.372111091220628E-19 0
2.9629833585622116E-18 0
5.874212646762646E-19 0
-5.879318605253905E-19 0
-1.4302659351719965E-18 0
-7.392374304576978E-18 0
8.579203599620448E-18 0
-1.3357721359673058E-17 0
7.371112265984843E-19 0
1.2105842513578633E-18 0
4.437660644360917E-18 0
3.2222305732910674E-18 0
-8.98061990860032E-19 0
5.5364171825665294E-18 0
-5.22272293781339E-18 0
2.910989836213185E-18 0
-3.3928811352439026E-19 0
-5.93236921023188E-19 0
-2.4828864563996725E-18 0
-1.268020433538319E-18 0
1.4919673816647605E-18 0
1.890704279880807E-18 0
9.914563513148889E-18 0
1.536861476675487E-17 0
1.2583419833463868E-17 0
-4.126660496680837E-18 0
1.2288613744356687E-18 0
-3.742086670997902E-18 0
-1.6400707918709533E-18 0
-2.296699371061572E-18 0
2.0610819419299166E-17 0
-1.9317356610099417E-17 0
4.999999999999996E-1 0
-2.1294996874554623E-17 0
-1.2978875753155313E-17 0
2.2132563125819142E-17 0
1.4498146502350754E-17 0
-1.4997390047771163E-17 0
2.4707613788241555E-17 0
1.4930838829120183E-18 0
-6.585298573316879E-20 0
-1.2213720297535815E-18 0
-2.578111417189714E-18 0
-2.7054761179865307E-18 0
-7.255002004260083E-19 0
8.640975157961768E-19 0
-1.1137636757333851E-18 0
-3.64149545888913E-18 0
-2.677073802827507E-18 0
2.7588933828732554E-19 0
1.6483436988435124E-19 0
9.902250072657244E-20 0
-1.1239780578767809E-18 0
1.1179493107104965E-18 0
-2.359430059190205E-19 0
5.088990677159242E-19 0
9.612806161408698E-20 0
-1.3205149230965885E-17 0
-2.279800905435792E-18 0
4.0147553554281264E-18 0
-3.2050053327303592E-18 0
-2.7462094014280917E-18 0
4.136037365883588E-18 0
-6.5320391316257706E-18 0
6.030856798062605E-18 0
1.3418093646112607E-18 0
-6.415413398339937E-20 0
-1.9462416357589638E-18 0
-2.3410050146690083E-19 0
1.0292171729656886E-18 0
3.935907511981873E-18 0
8.732303843732961E-18 0
1.3140574263599148E-17 0
1.4536434665571096E-17 0
-6.093844384922545E-18 0
-5.585708011354732E-18 0
2.229533418930406E-18 0
-3.681391568327711E-18 0
-5.312410237598211E-19 0
-3.0621179809732282E-18 0
2.0112658288845717E-17 0
-2.5156554313511956E-17 0
1.4096130088297233E-17 0
4.999999999999996E-1 0
5.141872698480276E-17 0
-1.6631331155235401E-18 0
-1.2534509044558456E-17 0
8.825181522336651E-18 0
-1.1252494534178555E-17 0
1.7723131992413473E-17 0
-1.463442346684812E-20 0
-3.0182253280677916E-20 0
5.4071590368680845E-20 0
6.657287474334051E-20 0
-4.1182664133317876E-19 0
-2.046167496895079E-18 0
-4.3116721997919924E-18 0
-4.854136352424861E-18 0
-1.5800454183591454E-18 0
1.0173972535358732E-18 0
4.796484635993335E-19 0
-1.2816246899385572E-18 0
-4.054545389669261E-19 0
4.0411477831640534E-19 0
1.0219559959900861E-18 0
7.109830659473285E-19 0
-3.669522686507453E-18 0
5.0717299159543645E-18 0
7.490798883361204E-18 0
-9.378475789054464E-18 0
6.277476390558838E-19 0
1.8881717677642983E-18 0
-8.607400444983582E-18 0
2.1260214563403487E-18 0
-1.1344556643642107E-18 0
-4.033748356615975E-18 0
-2.0275288614705657E-18 0
2.1293764426670478E-19 0
1.2347232554710191E-18 0
2.4588754638671227E-18 0
3.2395182009786265E-20 0
2.6888104172976976E-18 0
1.1608899872351237E-17 0
9.852836348344568E-18 0
-1.319814515612373E-17 0
-3.4983512909558996E-18 0
1.6322306937724823E-18 0
-9.154612373836633E-19 0
-9.448012292995574E-19 0
-1.2892337618879913E-18 0
1.1709473857393363E-17 0
-1.044400976566881E-17 0
-3.168308166477465E-18 0
5.2609189444047754E-17 0
4.9999999999999956E-1 0
1.170621022644737E-17 0
7.776661735653863E-18 0
-2.1718417641100264E-18 0
-7.784023684056374E-18 0
-5.279420126612655E-18 0
2.0481943242781002E-20 0
5.864082798749414E-19 0
6.905980053436906E-19 0
-6.392432684525045E-20 0
-1.7340985550477305E-18 0
-2.683271121356006E-18 0
-2.170630549147979E-18 0
-1.8872529731686953E-18 0
-1.6746315977091543E-18 0
1.818473677805936E-18 0
-5.118889014312014E-19 0
-1.3363089564409202E-18 0
4.2179830821045033E-19 0
-4.1992321544266503E-19 0
1.9279440873475155E-18 0
-2.190713165539172E-18 0
3.421163124607919E-18 0
-1.019671338691702E-18 0
-4.388800588873181E-18 0
1.6198626862026465E-17 0
-3.506451401931255E-18 0
-2.8426263211172714E-19 0
8.993873412051285E-18 0
5.445731597291177E-18 0
-1.4312798059199948E-18 0
-1.3665307421751006E-19 0
-3.1423010913759767E-18 0
1.079704631874573E-19 0
-1.008572299089491E-19 0
-3.375378585231736E-18 0
-3.203655695118486E-18 0
-6.771706578463819E-19 0
6.798120351617754E-18 0
1.9776825390381986E-18 0
-8.237926693739414E-18 0
-2.2591940695984433E-18 0
7.738247803298632E-20 0
5.277718020928114E-20 0
4.2040327682781195E-19 0
-2.138444678070993E-18 0
1.3466678944943626E-17 0
-2.2634311190223228E-17 0
2.3201261801826736E-17 0
6.050553653974647E-18 0
1.8317565089969382E-17 0
4.9999999999999956E-1 0
6.847110784921623E-18 0
7.933859452332574E-18 0
2.1092325868169244E-17 0
-5.092907833072715E-17 0
-4.286339450638503E-20 0
-7.966258947472082E-19 0
-1.0700281205013252E-18 0
-9.338301716093594E-19 0
-3.5498747104618236E-19 0
-5.904375882406931E-19 0
-1.6214522213863496E-18 0
-1.3790296424519014E-18 0
7.299775258706453E-19 0
1.3503388792951311E-18 0
-3.003491874577903E-18 0
1.8174976179365714E-18 0
3.4285369701816443E-19 0
-3.4677777981090973E-19 0
-1.1794939182976435E-18 0
1.4038645774130962E-19 0
4.783452019641878E-18 0
-7.642534486766592E-18 0
3.800182405959402E-18 0
4.411656519822443E-19 0
1.706632340008982E-17 0
-2.0704969969218307E-18 0
1.2701200610380108E-18 0
-4.85041630847932E-18 0
-4.839407996766688E-18 0
-1.4004015493003396E-18 0
5.935688731480086E-19 0
-2.4261092803215366E-18 0
-4.512043267439999E-18 0
-8.288896782016692E-18 0
-5.460474579206998E-18 0
5.830839039542192E-18 0
2.36292534591874E-18 0
-6.1241273665584156E-18 0
6.927336308221807E-19 0
-3.956044586418648E-18 0
-9.591311974106281E-19 0
2.007709721293504E-18 0
-1.8979926461929618E-18 0
1.137699005056306E-18 0
7.256620309066285E-18 0
-1.2266540946278716E-17 0
1.7843154047197574E-17 0
-8.509441019750178E-18 0
1.3467735152279012E-18 0
9.547092886433188E-18 0
4.999999999999996E-1 0
-1.5446896109374763E-17 0
-4.126565216258877E-17 0
2.440528462575631E-17 0
-7.996537885318272E-21 0
3.8191791920017087E-20 0
-6.776110969314079E-19 0
-1.7318934228000152E-19 0
1.8910452092805243E-18 0
2.192475593373594E-18 0
-1.6532904631882372E-18 0
-2.085238252860265E-18 0
2.1047891957772713E-18 0
8.698687111410677E-19 0
-3.2948977791116795E-18 0
2.6230743535394288E-18 0
5.315429950830946E-19 0
-5.322750667512048E-19 0
-3.1573242151831754E-18 0
5.727068937722419E-18 0
-6.152903270082762E-18 0
4.16542557937742E-18 0
1.177577604188429E-20 0
-3.369544840357891E-18 0
-1.7669791324186092E-18 0
2.4906454840772153E-17 0
-4.66868222807001E-18 0
-4.683188114442852E-18 0
8.722758535068561E-18 0
9.631512821411337E-19 0
1.235720088422655E-18 0
-3.0388694419863543E-18 0
-7.174585943752286E-18 0
-6.355249475242447E-18 0
-6.656946049858805E-19 0
2.6415720394996915E-18 0
1.5079328996596184E-18 0
-5.65772147923551E-18 0
1.6778488591370492E-18 0
-1.265333521984515E-18 0
-1.4475320769598014E-18 0
-6.327920745877885E-20 0
-6.831671935361724E-19 0
3.623000669209224E-18 0
-2.8759552850718085E-18 0
8.289310800368612E-18 0
-9.316891911303984E-18 0
2.6624939844658317E-18 0
7.774668257825927E-18 0
-7.153152273463688E-18 0
9.137074851107017E-18 0
4.9999999999999956E-1 0
2.8779581720978745E-17 0
1.503423927727858E-17 0
9.355487638204616E-20 0
5.032879172574833E-19 0
6.457144644170899E-20 0
5.001811898686198E-19 0
2.5876731793719455E-18 0
2.775129922901683E-18 0
-5.67141395143831E-19 0
-1.6202866065523692E-18 0
1.5687413604535241E-18 0
-2.8506380896245684E-20 0
-4.963609003568799E-19 0
-8.771809268503768E-19 0
1.5592177279900138E-18 0
-1.5506529121415251E-18 0
2.181199207308403E-20 0
4.306405888540423E-18 0
-8.804746858595355E-18 0
1.222292538591255E-17 0
-1.3118794064423785E-17 0
8.307798447050704E-18 0
-7.639218373018678E-19 0
3.537062770339329E-18 0
8.226925087746742E-18 0
5.104031282877131E-18 0
-7.55744840762724E-18 0
2.9082239749357877E-18 0
6.3994890867282505E-18 0
1.087874274137249E-18 0
-5.270044904697396E-18 0
1.7922666459748843E-19 0
7.598033924025801E-19 0
-7.20064955856008E-19 0
-1.6071078690607704E-18 0
1.438557021773795E-19 0
-1.778752114803142E-18 0
1.578683384857143E-18 0
3.524098608777541E-18 0
-2.9599780638555293E-18 0
1.9599491981664556E-18 0
-4.249468757437239E-18 0
7.49953221694508E-18 0
-1.6134642788823892E-17 0
1.988512266053647E-17 0
-7.602877129367052E-18 0
-8.280772406195698E-18 0
1.5455391097175647E-17 0
-3.794843113257106E-17 0
4.727654129320228E-17 0
4.999999999999995E-1 0
8.715031117752572E-17 0
1.336309050309233E-19 0
-2.469330762065042E-19 0
1.1856385659070225E-18 0
1.6940020379157452E-18 0
6.5357797364940145E-19 0
-2.6229778090658783E-19 0
-4.0736148381851068E-19 0
9.907340259534595E-20 0
8.402626640898621E-19 0
-9.838441541084144E-19 0
2.1304834805328214E-18 0
-3.1883317268938625E-18 0
2.571935786108154E-18 0
-2.559702066846093E-18 0
3.891315977146298E-18 0
-5.428070269564027E-18 0
8.037376513763327E-18 0
-8.356183963137601E-18 0
3.3456919208142857E-20 0
9.084269085331853E-18 0
-5.60192382212178E-18 0
-2.1098630717715595E-18 0
4.5800486493316934E-18 0
8.226925087746742E-18 0
2.1882864275832243E-18 0
8.480939190098152E-19 0
2.628477423390794E-18 0
6.348189379149639E-18 0
1.030220428583398E-17 0
7.38279602783982E-19 0
-6.2151526288339365E-18 0
-3.908882342104677E-18 0
7.467905676258446E-19 0
-7.880552543595931E-20 0
-1.6106803410896164E-18 0
2.089363794864217E-18 0
2.1078175502677277E-20 0
1.7960816486518671E-19 0
-6.434979162257389E-19 0
-2.1159466361573246E-19 0
1.913921472615144E-18 0
-5.32206580996956E-18 0
9.543001568405536E-19 0
1.949841720030147E-17 0
-9.12673718362018E-18 0
-4.679166506182634E-17 0
2.2726158691875933E-17 0
2.6145796966630048E-17 0
7.169293813325394E-17 0
4.999999999999996E-1 0
2.3893879862263703E-20 0
-1.8187767121010823E-18 0
-1.7737309394695618E-18 0
5.2038120679711195E-20 0
7.648060119334245E-19 0
-4.900749114291293E-19 0
-1.2747996056405622E-18 0
2.666640125876816E-19 0
1.6696038259641074E-18 0
-1.7319879939855338E-18 0
1.0620630465406746E-18 0
-1.2990658754026653E-18 0
2.1599447992634365E-18 0
-2.1577573485517703E-18 0
1.4722611084500312E-18 0
-1.8673615683517264E-18 0
3.640623629218829E-18 0
-4.776492666585448E-18 0
3.2715960716060515E-18 0
-5.722475440419926E-19 0
-3.315769604661986E-19 0
-3.067955623500298E-18 0
5.544953026896213E-18 0
3.3588766921631818E-18 0
3.5982500703375655E-17 0
-1.436666522843273E-17 0
4.9592165349333614E-20 0
2.46619559218184E-19 0
1.0716770547414426E-19 0
-1.0628474591484322E-21 0
-6.235603553096343E-20 0
-9.21345746732125E-20 0
-4.2133306180189516E-21 0
6.054233962874976E-22 0
-4.97365711747933E-20 0
5.451858370305797E-20 0
3.7369437132623713E-20 0
-3.67869463495212E-20 0
-3.678694634953687E-20 0
3.7367400753442126E-20 0
5.452783023574757E-20 0
-4.9765361869242757E-20 0
6.879713574536437E-22 0
-4.446457688690519E-21 0
-9.151931375086028E-20 0
-6.393732944631311E-20 0
2.4744114730995518E-21 0
9.908846177989187E-20 0
2.583110982109774E-19 0
4.5938200716019485E-20 0
4.999999999999995E-1 0
2.507719586941268E-18 0
1.098951163010991E-18 0
-1.3640408847166687E-18 0
-3.4349919974291276E-18 0
6.54138765275546E-19 0
-2.2608059788438728E-20 0
-3.6926140594960674E-18 0
-1.5718492871088237E-19 0
2.475973279760472E-18 0
1.7203386623381063E-18 0
-1.076703524862324E-18 0
2.1933943692273844E-18 0
2.1933943692273802E-18 0
-1.0766118550916861E-18 0
1.719922419854963E-18 0
2.4772854973706392E-18 0
-1.6100987120838158E-19 0
-3.682637063311331E-18 0
-4.4864241225134173E-20 0
6.953321955180474E-19 0
-3.495854518425699E-18 0
-1.296750879207655E-18 0
1.0497884225001918E-18 0
2.6609279416391516E-18 0
-1.6363533563423865E-19 0
3.676356602938842E-19 0
-2.292039411929673E-17 0
5.759522720461462E-18 0
1.8806903323814088E-17 0
-1.2281600402666547E-17 0
-6.12036995344631E-18 0
5.583983812788381E-18 0
6.894724907830188E-19 0
-8.413888128883924E-18 0
7.496586962507887E-18 0
-4.365471970880553E-18 0
1.8168408717613055E-18 0
-1.8318214539631122E-18 0
4.711970715877318E-18 0
-3.0100933892463648E-18 0
-1.5835619238863733E-18 0
-1.0510121314809439E-18 0
-6.39837448970307E-19 0
1.2299320312603428E-19 0
1.561910138496602E-19 0
5.700406111982658E-19 0
4.848176665018811E-19 0
2.87101868066395E-19 0
-2.7359337217139857E-19 0
1.990477816774454E-18 0
4.999999999999996E-1 0
-1.7423184081619398E-17 0
-4.8491259699165165E-17 0
2.0820439375575563E-17 0
2.1242771334197526E-17 0
-2.6112311557740146E-17 0
1.221025103041698E-17 0
5.592428975672923E-18 0
-1.091109625533826E-17 0
1.209947461469944E-17 0
-7.739009785934682E-18 0
-8.732374192006648E-19 0
5.2612121280934345E-19 0
4.206997984193548E-18 0
7.516033262610069E-19 0
1.5710430072248638E-19 0
-4.643663693108559E-19 0
9.665657888281974E-19 0
-2.578139623986695E-18 0
-4.4644672445562225E-18 0
8.305021955334264E-19 0
3.919160646142755E-18 0
7.023705179034521E-18 0
1.2938789032525346E-19 0
-2.7305445164763703E-19 0
-1.2798426265430932E-17 0
8.149864583175309E-18 0
-4.530578455922526E-18 0
3.001309908690528E-18 0
1.8154992895977387E-18 0
-6.1405157671471346E-18 0
1.2741218927549927E-18 0
2.458570667064925E-18 0
-7.890467378051554E-18 0
5.606004778823017E-18 0
-3.004563772176077E-18 0
2.824613524098669E-18 0
-2.8496112707196918E-18 0
4.19094434515084E-18 0
-1.842388200115701E-18 0
-1.3398795586111907E-18 0
-1.9793547406803786E-18 0
-5.817621155950636E-19 0
3.7925355494907043E-19 0
-4.416082192806625E-19 0
-2.680555862336953E-20 0
4.567748570708133E-19 0
1.0679375759486734E-18 0
-2.571994469920705E-19 0
3.609727226239914E-18 0
-2.0111949194903843E-17 0
4.9999999999999956E-1 0
7.685738066662362E-18 0
-3.2332742119650276E-17 0
2.337327452018378E-17 0
-4.958177871604981E-18 0
-3.0621658028762313E-18 0
6.904468973426169E-18 0
-6.515728990882374E-18 0
5.479703369954938E-18 0
-3.480930932776326E-18 0
1.8890759922290864E-18 0
-2.7970130510213783E-18 0
3.848512888680036E-18 0
2.5764956064187463E-18 0
-8.38726017796582E-19 0
-1.231780606096388E-18 0
-6.826242570971108E-19 0
-2.730602705249238E-19 0
-2.864750786263689E-18 0
-4.146388409869738E-18 0
2.232089594016645E-19 0
3.882956031465055E-18 0
4.034151197144373E-18 0
-1.1528813880583604E-19 0
1.475133567974421E-17 0
-1.4984682705645504E-18 0
3.169297849496771E-17 0
-1.094937910232867E-17 0
7.905345365025213E-18 0
7.046568391394824E-18 0
-9.427146025110161E-18 0
3.902644072723262E-18 0
-1.3156499260715493E-19 0
-2.751910948044434E-18 0
2.667160772717825E-18 0
2.278787609301571E-18 0
-2.289342074408977E-18 0
-2.226272960581346E-19 0
2.2462472413101595E-18 0
2.2027254391721913E-19 0
-1.7123844851667964E-18 0
1.0155669614645335E-19 0
-1.908023114244752E-20 0
-1.1052902710923363E-18 0
9.713840440286786E-20 0
7.348119527930606E-19 0
9.054933179436323E-19 0
-8.30750537249506E-21 0
1.0883850612848844E-18 0
-2.575204157322142E-17 0
5.390393563055018E-18 0
4.999999999999997E-1 0
-7.137730314674435E-17 0
-2.0606604133973444E-17 0
3.511605585350072E-17 0
-1.9396031654500417E-17 0
4.434804874984683E-18 0
1.385889955314759E-18 0
-6.612947270959491E-18 0
6.046830354858171E-18 0
-7.878951425189254E-20 0
-6.716765551970284E-19 0
-1.9808551405624455E-18 0
2.6808453843979396E-18 0
-2.0499879379209566E-18 0
-2.0752903894701722E-18 0
1.5804343224292836E-18 0
-5.051915104051257E-19 0
-5.505189723920655E-18 0
-8.166087890698177E-18 0
-7.302844318082979E-18 0
-2.0587117189733773E-18 0
1.222624491256154E-17 0
6.808173344856427E-20 0
-2.4404288784910495E-17 0
-1.2309926133657793E-17 0
2.6882982559740114E-17 0
8.254804588659208E-18 0
1.1908792393968006E-17 0
4.117554155701585E-18 0
-9.554656478496928E-18 0
2.5231558496629286E-18 0
5.613806803432923E-18 0
-6.95626414548738E-18 0
5.4770037885225165E-18 0
4.803866540394911E-19 0
-4.741538681902333E-19 0
-2.8559102363896996E-18 0
4.1262268139161145E-18 0
1.2565779461621939E-18 0
2.527604686142169E-19 0
-1.9491230531935095E-19 0
-1.2315434072340707E-18 0
-4.9490832386441855E-19 0
1.661956348777499E-18 0
1.7155359075062021E-18 0
-3.73581657170848E-20 0
-9.098095729161388E-20 0
-1.9269843828707653E-18 0
2.0035809698936074E-17 0
-7.331230755807979E-18 0
-5.21312388375322E-17 0
4.999999999999996E-1 0
-5.417389784941285E-17 0
2.737218705468324E-17 0
-2.5968920446813083E-19 0
-3.59268927614953E-18 0
1.3865314828632076E-18 0
-5.4588122900458625E-18 0
3.668437866114105E-18 0
-2.2008760647518106E-18 0
2.2672918297221418E-18 0
-3.8469423819659274E-18 0
1.1041132692492914E-18 0
-6.985977891898834E-18 0
1.3201428043716572E-18 0
6.4378247909384155E-18 0
-1.6368542073580465E-18 0
-1.0818453273963433E-17 0
-1.4499557227612857E-17 0
-9.960721211969109E-18 0
-5.983016984791047E-19 0
3.987724788912998E-18 0
1.3003458608778547E-20 0
1.7632611835199503E-17 0
1.4923630487400795E-17 0
7.417880312829858E-18 0
3.028967618876951E-18 0
-4.1708606050888225E-17 0
-1.9721142928386068E-19 0
-2.310372782039559E-18 0
1.4734063835592144E-19 0
4.0604461655223275E-18 0
-3.2790334003634918E-18 0
7.095364680505496E-19 0
-8.177399698430284E-19 0
8.189304179808286E-19 0
-1.092058554467848E-18 0
1.6117517370855585E-18 0
1.2212632932948927E-18 0
1.6329576805556637E-18 0
-2.271852423881166E-18 0
-2.659032186759886E-18 0
3.4965855140228718E-19 0
2.204279797405032E-18 0
1.9682479472744134E-18 0
-9.721726780420813E-20 0
-9.83468847180199E-19 0
-2.738998742775127E-19 0
1.2012107831290517E-17 0
4.381990692734907E-18 0
-1.1227552008878841E-17 0
-3.661915426857517E-17 0
4.999999999999995E-1 0
3.05481485803977E-17 0
1.1733479882978385E-17 0
-1.910135454730325E-18 0
-6.88990764099225E-18 0
-4.838362162117965E-19 0
-5.644248190749938E-19 0
4.0993717143131915E-19 0
4.816216428173876E-20 0
5.840356929757198E-19 0
-1.2469163918704784E-18 0
-1.1814048240352933E-17 0
2.1457264582174528E-18 0
1.3679190484147535E-17 0
2.404432305229694E-18 0
-1.0314650121733886E-17 0
-1.3522011259139601E-17 0
-5.295932933713065E-18 0
-7.326776870978499E-19 0
-1.0721199845674047E-17 0
-2.3580559277087264E-20 0
-1.1281223330956005E-18 0
-2.197404887458614E-19 0
-3.118494517399928E-18 0
-3.384620173865416E-18 0
5.319708761906131E-18 0
-1.6908204650709348E-17 0
1.925811870455596E-18 0
2.331770931354027E-18 0
-1.9444421394036698E-18 0
2.045343437685186E-18 0
-6.272503984835496E-18 0
-5.731969234838183E-19 0
5.710381568259777E-19 0
1.669314348687431E-18 0
-1.5642317043710912E-18 0
1.1394575948340478E-18 0
-2.9875265010686405E-19 0
-4.66201533315721E-18 0
-3.66476005866959E-18 0
-8.853072869638387E-19 0
2.7866899564270505E-19 0
3.279704167659712E-19 0
5.3147206768220205E-19 0
-1.121176254618994E-18 0
-3.443331619582177E-18 0
-2.5725114423967585E-17 0
1.208712874248972E-17 0
3.589529689963577E-17 0
2.990004946979616E-17 0
4.236526051664368E-17 0
4.999999999999996E-1 0
6.782551503757362E-17 0
-3.082854088072964E-17 0
-7.651024312277328E-19 0
-9.66766298020299E-18 0
1.1714108623290064E-17 0
-5.252616055418572E-19 0
-1.279714920393959E-18 0
2.2181401728028292E-18 0
-4.268866901635709E-18 0
-1.2576854570377809E-17 0
5.668461459799459E-19 0
1.7016696383547946E-17 0
1.3665075379439664E-17 0
4.559346948164751E-19 0
3.1077276702771306E-18 0
3.440510828443628E-18 0
-5.13193071798766E-18 0
-1.742988539220281E-18 0
6.121561938400809E-21 0
-1.2258668866326369E-18 0
-2.612737000423461E-18 0
-2.280492771917635E-18 0
-1.3640507544906763E-18 0
5.090839175829347E-18 0
1.568742165191395E-17 0
-1.2202541880750911E-17 0
1.1454532104528547E-17 0
-1.9006369488478455E-18 0
7.982700189377687E-19 0
-1.6336271763749404E-18 0
-5.724497817279245E-20 0
5.780539846016353E-20 0
1.0417379352959788E-18 0
-5.366825462799463E-19 0
1.837079644024239E-18 0
-2.4589342661887623E-18 0
-4.970431289843786E-18 0
-3.4320627146861194E-18 0
-2.4055805214986418E-18 0
-1.6043094013008957E-18 0
-5.004399837881578E-19 0
3.4138616803685957E-19 0
8.642127987382292E-19 0
5.212764242400397E-19 0
1.7586727840352608E-17 0
-1.4114166312892288E-17 0
-2.502858654074176E-17 0
-5.047167793780612E-18 0
1.0537829287870671E-17 0
7.779972854986691E-17 0
4.9999999999999967E-1 0
3.672818081556093E-17 0
-1.3624979588385531E-17 0
-4.106806893424259E-18 0
5.334500853047704E-18 0
-1.2025808804644916E-18 0
-3.0857604675357944E-18 0
-3.7700090408778222E-19 0
-8.222468330002872E-18 0
-1.8011123489176137E-18 0
8.347383653387266E-18 0
1.1381346450165918E-17 0
1.1967941658660602E-17 0
1.462269489826082E-17 0
8.660306137683297E-18 0
1.7064890508259571E-18 0
3.4602159284080284E-18 0
1.1547506132111175E-18 0
3.996296556052532E-20 0
-4.444644270903426E-18 0
-3.7740013864762576E-18 0
-4.1654441594014515E-19 0
7.216931114544774E-19 0
-5.395454203224031E-18 0
-7.564731740207693E-18 0
1.9943390324814763E-17 0
1.463611559114313E-17 0
2.2058319054981344E-18 0
-6.745410470972041E-19 0
4.042558514374139E-18 0
1.9054928539191674E-19 0
-1.868907327431902E-19 0
-7.29174689082728E-19 0
1.4741817740190064E-18 0
1.768138221917478E-18 0
-1.1122985238561271E-18 0
-1.3956599855763346E-18 0
-1.2900424116502964E-18 0
-1.0761098579614482E-18 0
-8.985534138841421E-19 0
-2.0015962734705452E-20 0
7.0895307221008815E-19 0
1.1311124569432757E-18 0
2.9073269621810574E-18 0
1.4523172262352945E-18 0
1.2115936238849989E-17 0
8.272024323407003E-18 0
-1.3431439750682707E-18 0
-2.063639199373384E-18 0
-3.5399603380027567E-17 0
3.418582649877476E-17 0
4.9999999999999967E-1 0
-1.9500506343218116E-17 0
2.7582354344540532E-18 0
-8.709540146780022E-18 0
-3.1895476803711325E-18 0
-2.1926925356865964E-18 0
-5.701783536544239E-18 0
-9.711445492866026E-18 0
2.4240874972656778E-17 0
1.7129302103649343E-17 0
2.0108410625908633E-18 0
-7.104491667099449E-19 0
-1.4573228478291569E-18 0
-2.141617652867599E-18 0
2.648495075497094E-18 0
-2.0961617004459014E-18 0
-4.350059600992444E-18 0
-5.3358673997117945E-20 0
1.0240716188296622E-17 0
1.0681002684471223E-17 0
3.650979835328011E-18 0
-1.9216505070727068E-18 0
-4.908457539324505E-19 0
2.339682511447333E-18 0
-4.8942382081285334E-18 0
1.0909279497006545E-19 0
-1.6574337958889342E-17 0
2.533055636027007E-18 0
-6.355168419801216E-18 0
4.2924126323236215E-19 0
-4.34126173932626E-19 0
3.008923510409145E-18 0
-3.6263006864952686E-18 0
-4.231905029772406E-18 0
2.0693054108984056E-18 0
1.5181536788842443E-18 0
1.4941970441972958E-18 0
2.9165326778502894E-18 0
2.7080308368396282E-18 0
3.306573258763157E-19 0
-1.5642906654810866E-18 0
-1.0793682833161703E-18 0
2.294423978554034E-18 0
-9.828815663769222E-18 0
-7.57874635821829E-18 0
7.064603368761135E-19 0
1.2754909109496794E-18 0
-6.0752698545034895E-18 0
4.124718096568627E-18 0
-6.208246400580403E-18 0
-3.3407187504948037E-18 0
4.9999999999999956E-1 0
-3.186259825475445E-17 0
2.7381469896906934E-17 0
-1.6061986821331793E-18 0
-2.7503912902641863E-18 0
6.360150194407794E-19 0
-3.668940927641011E-18 0
2.5926486216560948E-17 0
2.7150672735017025E-17 0
1.543166806043782E-18 0
-9.652028322103945E-18 0
-1.0257594266711798E-17 0
-4.868241687447218E-18 0
-1.3252054284383182E-18 0
3.257365022582827E-18 0
-1.1840257375251613E-19 0
-1.1730112062827516E-19 0
-8.840309563613022E-18 0
-8.619698063466336E-18 0
-2.6642921226597227E-18 0
5.340420956570345E-19 0
1.0306166370045997E-19 0
5.505478399614637E-19 0
-3.9579682935755106E-18 0
-1.0307239804015476E-17 0
6.732570691340624E-18 0
1.0290589926072403E-18 0
7.837253708315714E-18 0
7.897945013451167E-19 0
-8.005332520746622E-19 0
-6.488385208747911E-18 0
-4.447120882560972E-19 0
3.9126914048431475E-18 0
4.2882971719697277E-19 0
8.71181936008539E-19 0
-1.6201481933457952E-19 0
-3.552649634675324E-18 0
-3.720039123980958E-18 0
2.465165615197654E-19 0
2.5754331366532836E-18 0
-2.2078960857841796E-18 0
2.9930425861912235E-18 0
1.1099350202519636E-17 0
3.1426270673345176E-18 0
-7.546572053321015E-18 0
-2.859518055122319E-18 0
4.019341157020706E-18 0
-9.856523411939411E-18 0
-1.0582258431125914E-17 0
-6.649652180526541E-18 0
-5.668830574156273E-17 0
4.999999999999998E-1 0
-3.661811628880907E-17 0
2.2303241457844933E-19 0
3.8043818318356778E-19 0
3.057219003101936E-17 0
3.732544141561137E-17 0
8.115607112055408E-18 0
-1.5048638146837779E-18 0
7.080157811576214E-19 0
8.419470065781219E-19 0
3.1391520504498783E-18 0
2.9993789642240546E-18 0
3.069424141018262E-18 0
-2.8256800502189504E-19 0
2.603602207258865E-18 0
1.3986501285813194E-19 0
6.531517706612356E-18 0
7.30223877535707E-18 0
3.840752390643787E-18 0
1.8180723700672433E-18 0
2.607551098268529E-18 0
2.457907672640448E-18 0
2.670303196473135E-18 0
5.538258668341918E-18 0
-2.0132252029615156E-18 0
-1.3077394221318787E-17 0
-8.697833116815752E-18 0
-2.028713673456762E-18 0
2.0415181164222498E-18 0
-3.567638402105137E-18 0
5.192219399587673E-18 0
1.930626436362358E-18 0
-1.573569354329904E-18 0
-2.052453396008965E-18 0
-8.584588600043359E-19 0
2.8850341401329885E-18 0
3.3586722052485912E-18 0
-8.84585733629992E-19 0
-3.233554145393651E-18 0
3.122510518451234E-18 0
-2.2862166085514135E-18 0
-8.281674582179775E-18 0
-3.1230452788958118E-18 0
6.101937432949603E-18 0
1.9799076283973394E-18 0
-1.9387704158066684E-18 0
1.5726651975175278E-17 0
1.6048151974478007E-17 0
2.2573632386566658E-18 0
3.306627155431503E-17 0
-7.190284019013673E-17 0
4.999999999999997E-1 0
1.3947038698844984E-18 0
8.34519059667626E-18 0
6.140102305734158E-17 0
3.535557494210538E-17 0
9.51663364826579E-18 0
-8.449879912489548E-18 0
-3.1136966468817005E-18 0
8.014845512218315E-21 0
-1.2919401818985394E-18 0
-1.8634481520773608E-18 0
-1.3412221624292818E-18 0
1.677115170872165E-18 0
-3.343281820438142E-19 0
9.728104461722594E-21 0
-1.5721032987091095E-18 0
-1.573316582912148E-18 0
-1.7530989437010203E-19 0
8.38087584186456E-19 0
7.091945563230112E-20 0
-1.0519910650564504E-18 0
1.3592410072332728E-19 0
1.9692998581851693E-18 0
2.0656159630198991E-19 0
5.581928867528475E-19 0
-1.2114073660198016E-18 0
-2.1745704177993525E-17 0
-2.5042017467926345E-17 0
1.215004648535287E-18 0
-5.540016898068256E-19 0
-2.091984672177617E-19 0
-1.9725173732687083E-18 0
-1.319578125123855E-19 0
1.0390404527557608E-18 0
-7.405618300407602E-20 0
-8.350696123162324E-19 0
1.6682841028935993E-19 0
1.628097866078173E-18 0
1.6435297329158436E-18 0
3.487551299694058E-20 0
-1.1951821966553927E-18 0
1.4104593635165993E-18 0
-2.2390174311212257E-19 0
-1.353938980896549E-18 0
1.1655490398217604E-18 0
3.877958184539456E-19 0
1.4599092328595316E-18 0
6.627716749321696E-19 0
1.8607644616380114E-19 0
1.3216409369514096E-18 0
-2.099878502634256E-18 0
4.9999999999999956E-1 0
-1.1844466743787716E-16 0
2.641562363230942E-18 0
1.8232904768735917E-18 0
2.396441665426338E-18 0
4.376889464843726E-19 0
-1.9953944282694073E-18 0
8.833419266817632E-19 0
2.001714893259367E-18 0
2.625941641868245E-18 0
-6.760300738937942E-19 0
-2.7768879330523042E-18 0
2.308750524733923E-19 0
9.728104461735465E-21 0
1.576643390900565E-18 0
1.5958942527359062E-18 0
1.8512094535719407E-19 0
-8.381848863592631E-19 0
-7.662806198211414E-20 0
1.0435562758089646E-18 0
-1.3630982514774038E-19 0
-1.9692444325343468E-18 0
-2.1111490864130997E-19 0
-5.532017879688473E-19 0
1.214828484830272E-18 0
-2.4763620619333904E-17 0
-2.1745704177993525E-17 0
-1.211583716152435E-18 0
5.589936350977435E-19 0
2.0464251913131455E-19 0
1.972580356067965E-18 0
1.3155074563625268E-19 0
-1.0474189157410218E-18 0
6.820281144580406E-20 0
8.352961411666897E-19 0
-1.5775700256935455E-19 0
-1.6044498524912958E-18 0
-1.6393241559886324E-18 0
3.4875512996937655E-20 0
1.5793769119360554E-19 0
-2.677949074419392E-18 0
-7.047910417123366E-19 0
2.5988663967877925E-18 0
2.037726091226391E-18 0
8.5136358322966455E-19 0
-1.9719824944479754E-18 0
4.227181790151758E-19 0
2.4044984327269105E-18 0
1.8200282017491275E-18 0
2.6422808194782054E-18 0
-1.1844466743787718E-16 0
4.9999999999999956E-1 0
-2.0991439779250803E-18 0
1.3183057001904184E-18 0
1.9435933918668523E-19 0
6.471566402975487E-19 0
1.4848566580438294E-18 0
3.5299774848804664E-19 0
1.2049593365232274E-18 0
-1.3822662857826689E-18 0
-2.5229104756341597E-19 0
1.5053271930308979E-18 0
-1.320736032418145E-18 0
1.3985109291796125E-19 0
-5.09301909325872E-18 0
-4.738572894378696E-18 0
2.938432186122413E-19 0
4.4524604152986164E-18 0
3.5512879340819656E-18 0
-8.035868259674588E-19 0
-3.707238419411487E-18 0
-2.1091545811326587E-18 0
-2.0933359896800275E-19 0
6.0281076156327735E-18 0
-5.144456781649753E-18 0
2.041596599805853E-18 0
-2.028793431191082E-18 0
-2.7798952641812866E-17 0
-7.992171171555014E-18 0
-2.287641025536725E-18 0
2.8981808097788224E-19 0
1.010987640948454E-18 0
1.9452916595475455E-18 0
-2.5333163448874634E-18 0
-3.703483037487352E-18 0
7.681255283061645E-19 0
3.8117786987374425E-18 0
-3.501281483008844E-18 0
-2.284876869043092E-18 0
2.2842365134955963E-18 0
3.102703777870794E-18 0
-3.6151669881219913E-19 0
-2.6092828134808238E-18 0
-1.6098393985492831E-18 0
-3.1814003312708526E-18 0
-7.592594318292469E-18 0
-1.0503509262101972E-17 0
7.039542567902719E-18 0
3.211631992587805E-17 0
6.019735537994045E-17 0
8.344373174042039E-18 0
1.3956516199897032E-18 0
4.999999999999996E-1 0
-4.468442239975916E-17 0
-9.277352619212187E-18 0
6.965779737161984E-18 0
3.3356265315398095E-18 0
2.196012164876806E-19 0
-2.0074221187571185E-18 0
9.669032728750561E-19 0
5.772841378713075E-18 0
-9.400976000494294E-19 0
-1.919070041746793E-18 0
-1.172379147271662E-19 0
4.118522132988509E-18 0
4.037570344619372E-18 0
-1.3585186830005917E-19 0
-3.790354556301911E-18 0
-2.6639739844675836E-18 0
2.0225094006188165E-18 0
2.96183014443807E-18 0
9.191821839036629E-19 0
8.8511454402989E-18 0
3.2265873000341055E-19 0
-8.77628106693855E-18 0
-8.008896194818514E-19 0
7.901566551626385E-19 0
-1.275000098795562E-18 0
-1.614992008904831E-17 0
-2.2522914344442704E-18 0
5.3997219792032776E-18 0
3.8612864337519096E-18 0
-4.700640009331888E-18 0
2.006122852144958E-18 0
5.283757754730634E-18 0
2.0401387275995497E-19 0
-5.4050210152769115E-18 0
3.891481317677344E-18 0
2.986959266729699E-18 0
9.881589993113187E-19 0
1.4690147791206932E-18 0
7.834890931678775E-19 0
-3.114273176573597E-19 0
-4.3185055618435923E-19 0
1.1036472510018059E-18 0
1.5693829371071102E-18 0
-3.7206781874403835E-18 0
-1.959715305116137E-17 0
3.5472232440380776E-17 0
5.002330388198208E-17 0
3.84149832342355E-19 0
2.1872899094733047E-19 0
-4.7736152107910624E-17 0
4.999999999999998E-1 0
-2.1016746596125206E-17 0
-4.398729326804335E-18 0
-4.763185717978218E-19 0
1.4154154784491913E-18 0
7.982777988451494E-18 0
6.466773503319395E-18 0
-1.2928518561583144E-17 0
5.504270210006024E-19 0
4.14092202694766E-18 0
-5.3516330515249714E-20 0
7.531728886311706E-19 0
1.0378397870164571E-18 0
9.852405793089757E-19 0
7.978655261116848E-19 0
4.536519988786783E-20 0
-1.5994718609501886E-18 0
-1.899023565663485E-18 0
1.4073619891721337E-18 0
2.9352358180698298E-18 0
1.945995677937382E-18 0
-5.1050223487511085E-18 0
-4.3324861990983214E-19 0
4.2834927597960044E-19 0
4.851345150967128E-18 0
-7.51853877215517E-19 0
-2.852687058946425E-18 0
-1.0791460396497759E-17 0
-1.1643186177674709E-17 0
8.432690291123886E-18 0
-1.2455249459320492E-19 0
-5.981957265407052E-18 0
-1.5805920605286915E-18 0
7.613064191863058E-18 0
-2.2272112384644476E-18 0
2.3096163367389822E-18 0
2.0279372544842152E-18 0
5.937608351753207E-19 0
-7.593890380521809E-19 0
-3.5216006277134424E-18 0
-8.728590001602759E-18 0
-1.4543916847558332E-17 0
-6.1266246635150204E-18 0
1.2057364369782174E-17 0
1.2908395275681303E-17 0
9.438810252686726E-18 0
1.5188962626169506E-17 0
-2.75956869812465E-18 0
-1.5955306049222818E-18 0
-1.5318683193598896E-17 0
5.2839419113312365E-18 0
4.999999999999996E-1 0
-4.007883423105604E-18 0
5.880239512995903E-18 0
6.524802552593151E-18 0
-1.4670779457489436E-17 0
-1.9768967664428238E-17 0
2.0803871953558938E-17 0
-3.3378599886243893E-18 0
-1.0261262575304747E-17 0
4.026351900618027E-20 0
3.8322024633413616E-19 0
1.1115118334253112E-18 0
1.0294441872057578E-18 0
-6.635544707169494E-19 0
-1.8601338858220157E-18 0
-5.596888793514786E-19 0
-1.8484306007183945E-18 0
-5.454731792831166E-18 0
1.3528073226114808E-18 0
1.9036365835874168E-18 0
-2.5455941601212216E-18 0
-1.8850888726605486E-19 0
1.9219495515518552E-19 0
6.8936521587182245E-19 0
6.493085551919122E-18 0
-1.0514709840501831E-17 0
-7.883184259224618E-18 0
1.2577246072612109E-17 0
-7.182751507493333E-18 0
7.709068868200699E-19 0
4.118714644027093E-18 0
3.213173249216092E-18 0
-6.841962459773212E-18 0
9.529539854662664E-19 0
2.878274989118971E-18 0
-2.9488950021301524E-18 0
-1.0989831456956538E-18 0
-3.213700236372608E-19 0
1.2525319735627114E-18 0
1.885676429177345E-18 0
1.1881881326486678E-18 0
-7.157033622226368E-19 0
6.5500120990823365E-18 0
1.9982272509519167E-17 0
-2.072029118503244E-18 0
-3.648309735865627E-18 0
-2.1755865958884984E-18 0
-3.209565864688703E-18 0
7.855863239856586E-18 0
-5.37179759781246E-18 0
3.3994573206476848E-18 0
4.9999999999999967E-1 0
-8.46847355452539E-18 0
-1.2392426856285922E-17 0
1.9554402754589377E-17 0
3.110410896863669E-17 0
-2.854331611464312E-17 0
5.794631158105794E-18 0
1.4016166473282347E-17 0
5.634552328330552E-21 0
1.2013008643061065E-18 0
9.93389695602302E-19 0
-4.370737182279041E-19 0
-1.6524278221961274E-18 0
-6.5084353443287225E-19 0
1.8792583275527785E-18 0
-7.466425722415824E-19 0
-5.100710610982661E-18 0
1.4782558315461255E-18 0
-1.8552277594418688E-19 0
-5.45645523050118E-19 0
6.032570968208622E-20 0
-5.980987443172797E-20 0
6.239380763169185E-19 0
-1.7442928320886753E-19 0
-2.5580893306769284E-19 0
1.213741923952666E-18 0
-1.3648510833301074E-17 0
-9.112011959512141E-19 0
-4.203397602013292E-18 0
2.957329116910977E-18 0
-6.011498121056565E-18 0
-1.6206933248298273E-18 0
3.0732014462130137E-18 0
5.690412214639448E-19 0
9.402874804865859E-19 0
-1.660076901763425E-18 0
3.1503797236146503E-19 0
4.512267578455716E-18 0
1.4160296075436706E-17 0
1.7916072240316714E-17 0
1.6055995154296823E-17 0
3.7229566966257575E-18 0
-5.650092763468761E-18 0
-6.594157819271543E-19 0
6.473028537189278E-19 0
-3.1126723775739767E-18 0
-1.1707060387350836E-18 0
1.8086226225746815E-18 0
8.647830048231134E-19 0
-1.1770842197250445E-19 0
2.4226249561834426E-17 0
4.999999999999996E-1 0
4.417822455522426E-17 0
-3.7836956969284247E-19 0
-2.4225443388243475E-17 0
1.6270265758915584E-17 0
-1.0617260793565056E-17 0
7.071356286230393E-18 0
-2.289609787353842E-20 0
-8.352062852914062E-19 0
-9.64364131252091E-19 0
-1.1725717566211993E-19 0
1.6237604614695884E-18 0
2.4112158496514883E-18 0
-6.370340577242599E-20 0
-1.7974204901630645E-18 0
-4.706766595092869E-19 0
5.47756813866888E-19 0
5.713084190172377E-20 0
1.5561072808335318E-19 0
5.675264199231441E-19 0
-5.696225251131747E-19 0
4.036863741786164E-19 0
-2.5786289571530057E-18 0
4.1074410035098666E-18 0
-5.564081821130544E-19 0
-8.851000589402029E-18 0
-2.2988839412171654E-17 0
5.845995318792685E-19 0
-9.32402318642996E-18 0
8.099531536764665E-18 0
1.04456827331828E-17 0
-3.928953559456663E-18 0
-3.5134793700159326E-18 0
-8.93810740320814E-19 0
1.942710613405746E-19 0
-8.817638751781325E-19 0
2.217944413868566E-18 0
3.641749959228574E-18 0
1.6845124976566756E-17 0
1.952591449568826E-17 0
4.228726255521622E-18 0
-1.3726987797853765E-17 0
1.6632345684948374E-19 0
2.0875552327891704E-18 0
-1.2425777950720456E-18 0
-5.700547859858568E-19 0
7.797660755997744E-20 0
-6.417355563720194E-19 0
8.143373159043022E-18 0
-1.3485412094664163E-17 0
4.329278303617058E-17 0
4.9999999999999956E-1 0
1.0142994147286786E-17 0
-8.733745969975554E-19 0
-1.190003054315966E-17 0
4.5042468149225925E-18 0
-1.409213358084349E-17 0
1.2313457117801375E-20 0
-1.4050107173746343E-18 0
-5.537838734087832E-19 0
2.12132283624252E-18 0
3.806785578924408E-18 0
1.576496032011835E-18 0
-2.301840581535843E-18 0
-1.596649813029433E-18 0
2.580375344897034E-18 0
-2.120413098895431E-18 0
2.2292931285735074E-18 0
-8.494383346009613E-19 0
8.238203486787674E-19 0
-8.226930691958668E-19 0
9.467330718662918E-19 0
-2.6808040594649937E-18 0
3.0807521861324753E-18 0
-3.5849383495693905E-18 0
2.5245702979008547E-18 0
-3.298733360691165E-18 0
-2.212114287410383E-17 0
2.189708509840635E-18 0
-6.965411366435217E-18 0
-7.377571475199496E-18 0
-7.780887759980443E-18 0
-1.8403832903985027E-19 0
-4.559824845107684E-18 0
-1.6599738492743716E-18 0
-4.412935506715363E-19 0
-7.88762901917142E-18 0
-4.018375685600559E-18 0
4.946683424561625E-18 0
1.4768878034396767E-17 0
-1.2046128091151414E-19 0
-9.924759706959699E-18 0
1.0205041318243839E-18 0
1.5881138397673082E-18 0
5.844875632527269E-21 0
4.629975287333766E-19 0
-3.0229661434316112E-18 0
7.380999287060112E-18 0
-1.5233235376740844E-17 0
2.0515786742392654E-17 0
-4.600638807507576E-18 0
1.4811078344203338E-17 0
4.9999999999999956E-1 0
3.3090220296308065E-17 0
2.9165145990421923E-17 0
2.459757714386459E-17 0
-3.437228325202691E-18 0
6.817569270017519E-20 0
-6.859956580609043E-19 0
-4.425698897622098E-20 0
1.5960628986989138E-18 0
2.1164892091841308E-18 0
6.650062850281296E-19 0
-1.3720843550202251E-18 0
-5.207656274017265E-19 0
1.5651804240841016E-18 0
-1.5387481648552994E-18 0
2.8087154926168517E-18 0
-1.3439905952593063E-18 0
-4.815712054297256E-19 0
4.87812593114699E-19 0
8.369668074348355E-19 0
-5.603431278233768E-19 0
-3.2926738304698893E-18 0
4.031583275394913E-18 0
-9.125736947756103E-19 0
-4.040356426529486E-18 0
-2.250650637550689E-19 0
2.318198324029809E-17 0
-2.6911527727416253E-18 0
-1.4270720462234846E-17 0
1.4311548819507024E-17 0
-2.020122366704583E-18 0
1.1373603541098836E-18 0
-3.20925016581482E-19 0
-6.106600033703924E-18 0
-9.45282337254239E-18 0
-8.002179124058367E-18 0
7.091994539447411E-18 0
4.983628972432924E-18 0
-2.5157647399811907E-18 0
-2.7256698509699775E-18 0
1.9939854126548447E-18 0
-1.5186380329536841E-18 0
2.299300574215663E-18 0
-2.2463180583768065E-18 0
9.170182257676075E-19 0
5.33873078050366E-18 0
-1.8093433060967827E-17 0
2.6680171739970056E-17 0
-1.8541880398908547E-17 0
-8.723689677660237E-18 0
3.820101077235283E-17 0
4.999999999999995E-1 0
-1.6441311644118316E-17 0
-2.96413319343922E-17 0
7.399409055818324E-18 0
-1.1252666531630803E-19 0
1.382450064742864E-20 0
-3.9098522132317104E-20 0
-5.580955125770026E-22 0
3.348116496830908E-19 0
6.940020145747411E-19 0
7.773761159526816E-19 0
-3.06594726416452E-19 0
-9.139391816596624E-19 0
4.97841846067541E-19 0
2.245331722256914E-18 0
-1.3636818858095689E-18 0
-2.2675951545023047E-18 0
2.25729349836474E-18 0
1.6443650121874188E-18 0
-3.4309289629607827E-18 0
1.486545519146517E-18 0
1.6021024697471372E-18 0
-8.587796917780457E-18 0
1.1523244645271045E-17 0
-2.0246322983865212E-18 0
2.7995328514965946E-18 0
-1.0251402143029341E-17 0
1.429240037671555E-17 0
-4.036062955615126E-18 0
1.1333824720204957E-18 0
3.281401409786786E-18 0
8.74946071819597E-19 0
-4.464641132205076E-18 0
-7.97613302789391E-18 0
-1.073588639125938E-18 0
2.4456659300788303E-18 0
2.147759417881124E-18 0
-3.1505074530063426E-18 0
-3.2188151919011284E-19 0
2.962823138114285E-18 0
-3.2948509294566387E-18 0
-6.386770330443931E-19 0
-9.21849446751181E-20 0
6.209100394754442E-18 0
-1.0593152780518096E-17 0
1.846421213133965E-17 0
-2.4515219609917468E-17 0
1.6227538538977884E-17 0
-5.184045616820791E-18 0
8.547048375862179E-18 0
-1.4648643436347942E-17 0
4.999999999999995E-1 0
1.1883588498515671E-17 0
-3.9925159097615285E-18 0
-2.7908064604873237E-19 0
4.695562894404871E-19 0
5.920372367053936E-19 0
5.801213655429513E-20 0
-4.87198970447036E-19 0
1.246482991150419E-19 0
9.193631852455315E-19 0
-4.377757575664656E-19 0
-1.3755324358431205E-18 0
1.6387092155741085E-18 0
1.1048601877139252E-18 0
-1.3644504658789065E-18 0
-2.8889199961630387E-18 0
2.863370560016862E-18 0
2.6252915380306774E-18 0
-6.609461152375802E-18 0
1.0050283352290858E-17 0
-1.1613882439840894E-17 0
2.6315270311670063E-18 0
1.0898309496369532E-17 0
-8.322555303252813E-18 0
-7.50285752189487E-18 0
1.2516903051708269E-17 0
-1.0251402143029341E-17 0
8.29972491050346E-18 0
3.641800848854488E-18 0
7.553245718155677E-18 0
1.803722778918695E-18 0
-4.217564582263695E-20 0
4.5592340878610064E-18 0
-3.2589459669280473E-18 0
-3.746739444724835E-18 0
2.747471646004033E-18 0
-1.3885892670734297E-18 0
7.59781557882802E-19 0
2.1296795208028078E-18 0
-1.827074018744436E-19 0
-2.9111958573996603E-18 0
1.9783249109839893E-18 0
1.328629836247732E-18 0
-2.1278989559695935E-18 0
1.5643912533963978E-18 0
-4.0728831145560155E-18 0
2.1026246293822652E-18 0
-2.7579058398418656E-18 0
1.817852433860793E-17 0
-3.8534070631833453E-17 0
3.080308118241715E-17 0
4.999999999999995E-1 0
2.8241483621020714E-17 0
-1.6882789809279512E-19 0
-9.7321918003865E-19 0
-1.0118382996705215E-20 0
1.8981525241223366E-18 0
1.6337406363840475E-18 0
-1.06242545975242E-18 0
-2.2143404415665572E-18 0
8.468336513028155E-19 0
2.9578954418789546E-18 0
-3.53539881233519E-18 0
2.4603811948234532E-18 0
-1.222007464453312E-18 0
-1.907614833526829E-18 0
1.8921588796185985E-18 0
-1.947453713627782E-19 0
4.106000289752178E-18 0
-1.0408223119279777E-17 0
1.1519363681511884E-17 0
-6.573331009507813E-19 0
-1.1069562750723035E-17 0
1.0892274371408263E-18 0
4.2893557421489E-18 0
7.058262921386906E-18 0
3.661500296711525E-18 0
1.7504173472599572E-17 0
2.0635647049797245E-18 0
5.086452614778999E-19 0
8.8891234109751E-18 0
1.2860605804354974E-17 0
1.0944951246110143E-18 0
-7.199465653210735E-18 0
-3.31633671672074E-18 0
1.0276001241540791E-18 0
-1.531125775880794E-18 0
-5.74607004552007E-19 0
-8.624225607263705E-20 0
2.114302045028407E-18 0
6.288347952057788E-19 0
-9.81449925149466E-19 0
-3.565109282527296E-18 0
8.851905729884812E-18 0
-1.7170567978253416E-17 0
2.0332036821527728E-17 0
-7.375911059911954E-19 0
-9.275424560899615E-18 0
-1.5797137081586305E-17 0
3.677430561064333E-17 0
-2.9743060125954334E-17 0
2.0643010103154828E-17 0
4.999999999999995E-1 0
