%%MatrixMarket matrix array complex general
%
50 50
4.780410734198005E-1 0
6.248921847058703E-4 0
-6.248881508803683E-3 0
2.495983879820566E-3 0
-1.809377680571873E-3 0
-3.8557724365020776E-5 0
-3.228215346702364E-3 0
-1.950209417559656E-3 0
-3.640924916586843E-4 0
2.4347890479237697E-3 0
1.1992601171950565E-4 0
4.147091394054621E-3 0
2.910470096311521E-3 0
2.9104700963117494E-3 0
4.150048925374554E-3 0
1.0649682811640954E-4 0
2.468827686694374E-3 0
-4.3160013070554125E-4 0
-1.8304360405112222E-3 0
-3.4293419584449903E-3 0
2.92091159102195E-4 0
-2.3244262768367632E-3 0
3.2639628279657637E-3 0
-7.091640766274443E-3 0
1.0639652834162786E-3 0
-8.194648525803039E-4 0
7.932652286241442E-3 0
-2.613002647963193E-3 0
-1.2397609992726924E-2 0
-1.1657557703815232E-2 0
7.917584623717165E-3 0
-2.4686025187444062E-3 0
-4.401189519547953E-3 0
6.506391133767087E-3 0
-8.551203790452676E-3 0
8.077877655710745E-3 0
-7.214284274601862E-3 0
-2.327007329961173E-5 0
-2.3270073299326006E-5 0
-7.213292603044452E-3 0
8.073374799111908E-3 0
-8.538657879426868E-3 0
6.476125447694795E-3 0
-4.334785319922126E-3 0
-2.5970824609556314E-3 0
8.12835381796496E-3 0
-1.1938063578248026E-2 0
-1.2071691212395243E-2 0
-2.9156894177305203E-3 0
8.498582904435063E-3 0
6.248921847058774E-4 0
4.883528392994372E-1 0
4.4568495729273907E-4 0
-4.581289344412708E-3 0
1.7741666875746194E-3 0
-1.3807231610779942E-3 0
-1.2432126829845777E-4 0
-2.485937285747771E-3 0
-1.5837125358139582E-3 0
-4.4358193858003733E-4 0
1.60521616586596E-3 0
7.423281136104217E-6 0
3.1978546275832865E-3 0
2.04036370922213E-3 0
1.9447144135538766E-3 0
3.079645881869804E-3 0
1.5551642891313832E-4 0
1.9229226626974987E-3 0
-2.4056618800542178E-4 0
-1.2502107901954278E-3 0
-2.4781854339920185E-3 0
2.770712881247963E-4 0
-1.6897264243064404E-3 0
2.3301859306493907E-3 0
-5.011884447063423E-3 0
7.932652286240521E-3 0
-4.4115436164692353E-4 0
5.750778523182027E-3 0
-1.9204238965907837E-3 0
-9.059989087632234E-3 0
-8.529686328192593E-3 0
5.7415975767022035E-3 0
-1.8495163545795411E-3 0
-3.2241829902596576E-3 0
4.70411308106018E-3 0
-6.279772271210278E-3 0
5.815765022212697E-3 0
-5.6224103112184065E-3 0
1.2440427816121294E-5 0
3.801738076649827E-5 0
-5.238669966529811E-3 0
5.903558168542595E-3 0
-6.288175732818611E-3 0
4.775676814175272E-3 0
-3.1413990474903316E-3 0
-1.899917950813525E-3 0
6.015281614767825E-3 0
-8.713235822794579E-3 0
-8.943022965344377E-3 0
-1.989720191636681E-3 0
-6.248881508803684E-3 0
4.4568495729273045E-4 0
4.8831451493991723E-1 0
3.965650405442142E-4 0
-4.642713597230088E-3 0
1.695001427949214E-3 0
-1.486917039214489E-3 0
-2.6629919589390565E-4 0
-2.6705858308354396E-3 0
-1.7904886068735271E-3 0
-6.075575501398494E-4 0
1.6330538662321988E-3 0
1.5649797322774299E-4 0
3.2465982800169526E-3 0
1.9659008777685744E-3 0
1.985932637854638E-3 0
3.12757618395429E-3 0
1.9322721103105211E-4 0
1.968159517368455E-3 0
-2.2683978113503177E-4 0
-1.2095870845757054E-3 0
-2.455313043287605E-3 0
2.8200227714682367E-4 0
-1.5326290730791464E-3 0
2.0797868991608887E-3 0
-2.613002647962021E-3 0
5.749455708761195E-3 0
-4.618913558026144E-4 0
5.722909442950545E-3 0
-1.9545201013994496E-3 0
-9.099375835267225E-3 0
-8.572700388312657E-3 0
5.697974776012056E-3 0
-1.887372984100674E-3 0
-3.2597597233106038E-3 0
4.623112322295888E-3 0
-6.454875745301713E-3 0
6.031405951536963E-3 0
-5.518276587127821E-3 0
1.509135162757801E-4 0
2.1022222784125295E-4 0
-5.153086595183879E-3 0
6.033095601022501E-3 0
-6.314582235142034E-3 0
4.892866781851123E-3 0
-3.138061685879488E-3 0
-1.965291543876252E-3 0
6.29787608441054E-3 0
-9.090852918758302E-3 0
-9.207201874322073E-3 0
2.4959838798205656E-3 0
-4.5812893444127055E-3 0
3.9656504054420925E-4 0
4.8825654142755315E-1 0
3.278388732506743E-4 0
-4.728710830771283E-3 0
1.581286174149592E-3 0
-1.6368365591001017E-3 0
-4.6233155441792836E-4 0
-2.8890946423087587E-3 0
-2.0206569164236514E-3 0
-6.535411491476033E-4 0
1.8189680183519855E-3 0
1.780587796432323E-4 0
3.226126207900631E-3 0
2.1360138050367525E-3 0
1.9841270625951964E-3 0
3.1096435502190934E-3 0
1.394044563511915E-4 0
1.9692332241463863E-3 0
-2.521779953575153E-4 0
-1.1842169338653898E-3 0
-2.4624902796747546E-3 0
2.3098414358310414E-4 0
-1.4393349286114228E-3 0
-1.239760999272804E-2 0
-1.9248364473507533E-3 0
5.718057168821558E-3 0
-5.010168855214401E-4 0
5.677097744939951E-3 0
-2.007630843246134E-3 0
-9.160781864872587E-3 0
-8.64154731067025E-3 0
5.627426986576233E-3 0
-1.963692932263333E-3 0
-3.2871972921928935E-3 0
4.581528354544932E-3 0
-6.808155209506776E-3 0
6.160338358313372E-3 0
-5.185817772777284E-3 0
1.1825506132816116E-4 0
3.461005606360005E-4 0
-5.1471757438258745E-3 0
6.237624113026747E-3 0
-6.430921274967532E-3 0
5.107326263330866E-3 0
-3.2836963856896413E-3 0
-1.94350838044122E-3 0
6.369498038978534E-3 0
-9.284310007292424E-3 0
-1.8093776805718758E-3 0
1.7741666875745908E-3 0
-4.642713597230095E-3 0
3.2783887325067343E-4 0
4.8817907377639674E-1 0
2.3471819542108318E-4 0
-4.848223039380301E-3 0
1.428735319133153E-3 0
-1.8286367188374566E-3 0
-6.603081902891087E-4 0
-3.0799162827348987E-3 0
-1.935290176758874E-3 0
-4.641299347641347E-4 0
1.8521991688128412E-3 0
3.0579691146131706E-4 0
3.286794471413808E-3 0
2.0193425304738397E-3 0
1.873873968163746E-3 0
3.0431543647477153E-3 0
7.340956623510262E-5 0
1.9709640955949547E-3 0
-2.753295756311746E-4 0
-1.165442453883075E-3 0
-2.449602373929109E-3 0
9.43088009771238E-5 0
-1.1657557703814358E-2 0
-9.068341906554438E-3 0
-1.965924366908959E-3 0
5.669679705140119E-3 0
-5.564323061367927E-4 0
5.611676588278611E-3 0
-2.0880973782597787E-3 0
-9.261083238173472E-3 0
-8.759280495430165E-3 0
5.495235909189702E-3 0
-2.1896071183770322E-3 0
-3.5991212146301564E-3 0
4.724920566457179E-3 0
-6.697754531469474E-3 0
5.994747695444498E-3 0
-4.910181457678102E-3 0
2.654507011489628E-4 0
5.578243801263882E-4 0
-5.204960379421093E-3 0
6.482636187440983E-3 0
-6.6932251553134545E-3 0
5.507220319844484E-3 0
-3.7007366325302223E-3 0
-1.4446198255649429E-3 0
6.046511238810274E-3 0
-3.85577243650189E-5 0
-1.3807231610779693E-3 0
1.6950014279492143E-3 0
-4.728710830771308E-3 0
2.347181954210722E-4 0
4.880711123437909E-1 0
9.982404190365459E-5 0
-5.015782747820997E-3 0
1.2318530974518192E-3 0
-2.0064453804903262E-3 0
-7.961421053745589E-4 0
-2.9893434577568673E-3 0
-1.8988493869684527E-3 0
-4.7238786588018304E-4 0
1.910654955287662E-3 0
3.8099363442646453E-4 0
3.1503837551187398E-3 0
1.930438080344028E-3 0
1.779582698849203E-3 0
3.016702734181419E-3 0
3.0041340042184307E-5 0
1.9945206797527914E-3 0
-2.7577420037129357E-4 0
-1.2325974770411427E-3 0
-2.4696975321678435E-3 0
7.917584623716568E-3 0
-8.540918682689047E-3 0
-9.115232712402948E-3 0
-2.019408361981086E-3 0
5.608175069051543E-3 0
-6.297856744880052E-4 0
5.519850314262842E-3 0
-2.2087607616634213E-3 0
-9.423353094223225E-3 0
-8.968568024187636E-3 0
5.318994341040766E-3 0
-2.253749528920913E-3 0
-3.789507880906303E-3 0
4.780320642880196E-3 0
-6.283653498020395E-3 0
6.016450981687825E-3 0
-4.771076627145349E-3 0
3.1314523641995905E-4 0
7.003914800960292E-4 0
-5.3421721984341E-3 0
6.738205853464664E-3 0
-7.055639825213082E-3 0
5.967629483487837E-3 0
-4.120040584267693E-3 0
-1.4513437059563317E-3 0
-3.228215346702366E-3 0
-1.2432126829846812E-4 0
-1.4869170392144903E-3 0
1.5812861741496085E-3 0
-4.848223039380301E-3 0
9.982404190367226E-5 0
4.8790431226694503E-1 0
-1.0781278524584265E-4 0
-5.255625449387882E-3 0
1.0185106034893967E-3 0
-2.148549521299857E-3 0
-7.329911860075805E-4 0
-3.028690422457774E-3 0
-1.878829871208868E-3 0
-2.8424592870202145E-4 0
2.056523526903453E-3 0
3.839934918105932E-4 0
3.129734613206089E-3 0
1.9001419348937533E-3 0
1.7432024422087066E-3 0
3.0456275557580736E-3 0
2.681098589205253E-6 0
2.0644696490458424E-3 0
-2.8410314795503924E-4 0
-1.3754162422998392E-3 0
-2.4686025187440354E-3 0
5.731230376325757E-3 0
-8.585582805582977E-3 0
-9.16605009685156E-3 0
-2.0814506907862146E-3 0
5.5317146181572885E-3 0
-7.215007358840001E-4 0
5.408878752669641E-3 0
-2.371442223301597E-3 0
-9.670063625925812E-3 0
-9.260107849949514E-3 0
5.076772850415493E-3 0
-2.4492299719158198E-3 0
-3.671465972490779E-3 0
4.76525454402279E-3 0
-5.9692552218083604E-3 0
6.18183948480167E-3 0
-4.752848954991638E-3 0
2.4936531160132047E-4 0
7.482374420550309E-4 0
-5.503013280395576E-3 0
6.977728720500089E-3 0
-7.443964302468479E-3 0
6.1272385373991765E-3 0
-3.931384018206257E-3 0
-1.9502094175596575E-3 0
-2.48593728574777E-3 0
-2.6629919589390223E-4 0
-1.6368365591001007E-3 0
1.4287353191331715E-3 0
-5.015782747821006E-3 0
-1.0781278524585191E-4 0
4.876396572522193E-1 0
-4.234351324723557E-4 0
-5.561027051821758E-3 0
8.397751790515058E-4 0
-2.0943551974856307E-3 0
-6.8224347012483E-4 0
-3.007771146014277E-3 0
-1.5573249555423815E-3 0
3.5109304184831084E-5 0
2.2459149254594616E-3 0
4.545728982040244E-4 0
3.138412727067776E-3 0
1.901560279474881E-3 0
1.7484103990120848E-3 0
3.132185248920177E-3 0
-2.8399455673868142E-5 0
2.1550096166336775E-3 0
-2.994645695646659E-4 0
-4.401189519548227E-3 0
-1.8535055046624E-3 0
5.699061857281516E-3 0
-8.623973509804655E-3 0
-9.223867314143815E-3 0
-2.1635747297565483E-3 0
5.439984167465066E-3 0
-7.98197928652675E-4 0
5.329106799093625E-3 0
-2.4846423944149022E-3 0
-1.0019728521454274E-2 0
-9.497878468573355E-3 0
5.373164077374364E-3 0
-2.47467193405011E-3 0
-3.185656711711754E-3 0
5.029516941230084E-3 0
-6.152122470683122E-3 0
6.021144706591776E-3 0
-4.896655300685432E-3 0
2.4642763877335844E-4 0
7.465723967314826E-4 0
-5.643119569638125E-3 0
7.132834692147672E-3 0
-7.488209089456544E-3 0
5.641133176835985E-3 0
-3.6409249165868696E-4 0
-1.583712535813956E-3 0
-2.670585830835443E-3 0
-4.6233155441793405E-4 0
-1.8286367188374616E-3 0
1.2318530974518283E-3 0
-5.255625449387877E-3 0
-4.23435132472351E-4 0
4.8724819450452506E-1 0
-8.253242349447585E-4 0
-5.9112497849472334E-3 0
6.656809451901002E-4 0
-2.259926344583595E-3 0
-5.917144630838536E-4 0
-2.3473717458176464E-3 0
-9.255298255353323E-4 0
3.550097568806343E-4 0
2.355482890313612E-3 0
4.377741495174997E-4 0
3.152858478339741E-3 0
1.9230575715298685E-3 0
1.8358764708227887E-3 0
3.228537208194711E-3 0
3.0209424483340105E-5 0
2.087098466333399E-3 0
6.506391133767251E-3 0
-3.2169174469610837E-3 0
-1.8630940991541123E-3 0
5.68277040013341E-3 0
-8.66946303012723E-3 0
-9.32189814870779E-3 0
-2.29865486873871E-3 0
5.35164344563039E-3 0
-7.720797259988554E-4 0
5.460661594538916E-3 0
-2.383394884837103E-3 0
-9.758006360421904E-3 0
-9.929540278120066E-3 0
5.0502433959713E-3 0
-2.537789552692619E-3 0
-3.692412289235145E-3 0
4.439351561456522E-3 0
-6.454248448687103E-3 0
6.097669398435418E-3 0
-4.9813252999854505E-3 0
3.1442756363072514E-4 0
5.822179872521029E-4 0
-5.766058346732093E-3 0
6.891702903459047E-3 0
-7.114459526765872E-3 0
2.4347890479237684E-3 0
-4.4358193858003695E-4 0
-1.7904886068735224E-3 0
-2.8890946423087488E-3 0
-6.603081902891032E-4 0
-2.0064453804903284E-3 0
1.018510603489393E-3 0
-5.561027051821763E-3 0
-8.25324234944746E-4 0
4.868263667252496E-1 0
-1.2012059169006258E-3 0
-6.0469746422496945E-3 0
7.238929288773279E-4 0
-2.1329422641400858E-3 0
-7.418278679326521E-5 0
-1.8649490967886323E-3 0
-7.422094957021354E-4 0
3.3880839703539443E-4 0
2.281680446146395E-3 0
3.3147894024093346E-4 0
3.207595449500767E-3 0
1.9807156617568994E-3 0
1.9566433326590883E-3 0
3.222417350615459E-3 0
1.1596662043089772E-4 0
-8.551203790452756E-3 0
4.715456794711097E-3 0
-3.2284171700889077E-3 0
-1.892453696458843E-3 0
5.620687525977204E-3 0
-8.82136196914492E-3 0
-9.5753925944767E-3 0
-2.480925060943293E-3 0
5.412176883404662E-3 0
-5.359339232918615E-4 0
5.700091400675704E-3 0
-2.3103757638017986E-3 0
-1.0544332600523036E-2 0
-1.0381015349817179E-2 0
4.361608192029001E-3 0
-2.9445168950344297E-3 0
-4.031282128532301E-3 0
4.582031307833311E-3 0
-6.361930241303138E-3 0
6.394185586030641E-3 0
-5.267065399346658E-3 0
4.1385281234205764E-4 0
2.974966200113546E-4 0
-5.5328417841558515E-3 0
6.44727529762703E-3 0
1.1992601171950834E-4 0
1.6052161658659586E-3 0
-6.075575501398498E-4 0
-2.020656916423652E-3 0
-3.0799162827348987E-3 0
-7.96142105374553E-4 0
-2.148549521299846E-3 0
8.397751790515103E-4 0
-5.911249784947246E-3 0
-1.2012059169006519E-3 0
4.863567225419477E-1 0
-1.5868673172023682E-3 0
-6.531010483644377E-3 0
7.52398531945806E-4 0
-1.5244068131246781E-3 0
3.3934620324686137E-4 0
-1.875844093686988E-3 0
-8.979426800832102E-4 0
-1.5000212505955362E-5 0
2.133446306039892E-3 0
2.767482218356531E-4 0
3.4093108875441125E-3 0
2.0270214377479407E-3 0
2.0452961527190755E-3 0
3.226753325383756E-3 0
8.077877655710827E-3 0
-6.2920749334649355E-3 0
4.631119466280364E-3 0
-3.2812465619669533E-3 0
-2.099034204544944E-3 0
5.480645173895685E-3 0
-9.196961533712666E-3 0
-1.0092404156780074E-2 0
-2.5633139303449263E-3 0
5.5448966144192174E-3 0
-2.3762299202416127E-4 0
5.995520155411661E-3 0
-2.606119085209554E-3 0
-1.1241900060662583E-2 0
-1.0550466257997188E-2 0
4.068009662783846E-3 0
-2.73222435090228E-3 0
-3.6606256071034377E-3 0
5.370722170154241E-3 0
-6.441735024666093E-3 0
6.401840809086258E-3 0
-5.631372782704731E-3 0
6.626399502591342E-4 0
-8.841406966161094E-5 0
-5.43920346983923E-3 0
4.1470913940546295E-3 0
7.423281136108963E-6 0
1.6330538662322053E-3 0
-6.535411491476055E-4 0
-1.9352901767588748E-3 0
-2.9893434577568712E-3 0
-7.329911860075797E-4 0
-2.094355197485624E-3 0
6.656809451901171E-4 0
-6.0469746422496685E-3 0
-1.5868673172023675E-3 0
4.858515740634967E-1 0
-2.007118104416486E-3 0
-6.669661463834987E-3 0
1.044844091089738E-3 0
-1.52949288297373E-3 0
-5.899158569796509E-5 0
-2.378342571105155E-3 0
-1.5035848421043245E-3 0
-3.6953510846381897E-4 0
2.0380993102521836E-3 0
1.3065214620018925E-4 0
3.43442714287785E-3 0
1.7867077326267928E-3 0
2.125046414218682E-3 0
-7.214284274601959E-3 0
5.743591758309154E-3 0
-6.5202758025737755E-3 0
4.428445557999784E-3 0
-3.691727263958491E-3 0
-2.237903069042898E-3 0
5.028710233655519E-3 0
-9.59138267195016E-3 0
-9.993916432366806E-3 0
-2.620906374747353E-3 0
5.59867031665261E-3 0
-2.9988752135766617E-4 0
5.773734043745613E-3 0
-3.1593463438517318E-3 0
-1.0768697908495167E-2 0
-1.0130191041854248E-2 0
4.600106099866698E-3 0
-2.1509443561250254E-3 0
-3.360487732165408E-3 0
5.247155091361225E-3 0
-6.9497362067146035E-3 0
6.967814516435403E-3 0
-6.052770939479503E-3 0
1.071945335381279E-3 0
-2.3256480924073648E-4 0
2.91047009631152E-3 0
3.1978546275832904E-3 0
1.5649797322774862E-4 0
1.8189680183519855E-3 0
-4.6412993476413846E-4 0
-1.898849386968451E-3 0
-3.0286904224577768E-3 0
-6.822434701248368E-4 0
-2.2599263445835962E-3 0
7.238929288773229E-4 0
-6.531010483644372E-3 0
-2.007118104416483E-3 0
4.839662885174207E-1 0
-2.2742050608839056E-3 0
-6.671245102707628E-3 0
7.595893187473805E-4 0
-2.1509098153729657E-3 0
-5.573100787200975E-4 0
-3.065374850353954E-3 0
-1.7888603613803668E-3 0
-6.088987758770131E-4 0
2.0495943610178845E-3 0
-8.975662618100192E-5 0
3.517396831866666E-3 0
2.0260570607594465E-3 0
-2.3270073299463483E-5 0
-5.680410482360938E-3 0
5.9682600548305095E-3 0
-6.9403410213606555E-3 0
4.601960154714831E-3 0
-3.856924375152791E-3 0
-2.515591629272312E-3 0
5.339967590841077E-3 0
-1.0038999009409794E-2 0
-1.0736943916239432E-2 0
-2.978022262417715E-3 0
5.497772826211998E-3 0
-8.967529476981464E-4 0
5.937608252200703E-3 0
-2.8786420859636427E-3 0
-1.0891533480319775E-2 0
-1.0132787777949563E-2 0
5.0445141186804396E-3 0
-2.2247782572617733E-3 0
-3.988688842814579E-3 0
5.491039983393719E-3 0
-7.5564702614427035E-3 0
7.6222161806943104E-3 0
-6.761647182180416E-3 0
6.629093431885752E-4 0
2.910470096311749E-3 0
2.0403637092221293E-3 0
3.2465982800169504E-3 0
1.7805877964323466E-4 0
1.8521991688128451E-3 0
-4.723878658801818E-4 0
-1.8788298712088662E-3 0
-3.007771146014277E-3 0
-5.917144630838575E-4 0
-2.132942264140087E-3 0
7.523985319457995E-4 0
-6.66966146383499E-3 0
-2.2742050608839056E-3 0
4.839662885174207E-1 0
-2.0053189845624926E-3 0
-6.5391796991922E-3 0
7.441039265925457E-4 0
-2.2976556417720804E-3 0
-6.21835615983824E-4 0
-3.1174434644482244E-3 0
-1.772236195565555E-3 0
-6.404487959926049E-4 0
2.0667718527908226E-3 0
-1.1189130510506867E-4 0
3.4999871201933657E-3 0
-2.3270073299452963E-5 0
7.044059895859646E-5 0
-5.455130690421304E-3 0
6.292524170167189E-3 0
-6.574794119727078E-3 0
4.847737137126674E-3 0
-3.605104315134266E-3 0
-2.4414754475168316E-3 0
5.159702127261022E-3 0
-1.0188404034100793E-2 0
-1.0869996883454417E-2 0
-2.8833851263181183E-3 0
5.9376082522007035E-3 0
-8.967529476981048E-4 0
5.49609411888662E-3 0
-2.9703998008277694E-3 0
-1.0758041590036474E-2 0
-9.988709000583284E-3 0
5.226775424812037E-3 0
-2.277145549590017E-3 0
-4.32626633377252E-3 0
5.420964253653427E-3 0
-8.223107316486478E-3 0
7.3853418473291705E-3 0
-6.66690152129474E-3 0
4.150048925374562E-3 0
1.9447144135538745E-3 0
1.9659008777685692E-3 0
3.226126207900632E-3 0
3.057969114613193E-4 0
1.9106549552876698E-3 0
-2.842459287020167E-4 0
-1.5573249555423789E-3 0
-2.3473717458176403E-3 0
-7.418278679326279E-5 0
-1.524406813124658E-3 0
1.0448440910897664E-3 0
-6.671245102707626E-3 0
-2.0053189845624987E-3 0
4.85847005501327E-1 0
-1.5730912286986256E-3 0
-6.07728983512246E-3 0
7.188350244293002E-4 0
-2.174274836699262E-3 0
-6.248424642522832E-4 0
-3.1262132415506012E-3 0
-1.77082081599936E-3 0
-8.549559927731914E-4 0
1.8374226494072981E-3 0
-9.013086184883486E-5 0
-7.213292603044347E-3 0
1.1019078226881299E-4 0
2.1631440376290153E-4 0
-5.032734627059356E-3 0
6.087355167435813E-3 0
-6.299497503847337E-3 0
4.813317766998976E-3 0
-3.0921535897368803E-3 0
-2.301880990259143E-3 0
4.67213869912627E-3 0
-1.0153605869023358E-2 0
-1.0768668043445721E-2 0
-3.1545822528953695E-3 0
5.772034285818354E-3 0
-3.020107234255153E-4 0
5.606374701198348E-3 0
-2.6352854450429355E-3 0
-9.976847840689402E-3 0
-9.59451407871543E-3 0
4.97841831971801E-3 0
-2.0511864416699077E-3 0
-4.132353064318649E-3 0
5.288922201703148E-3 0
-7.601009067950229E-3 0
6.600781446475692E-3 0
1.0649682811641065E-4 0
3.0796458818698014E-3 0
1.9859326378546325E-3 0
2.1360138050367486E-3 0
3.2867944714138064E-3 0
3.8099363442646366E-4 0
2.0565235269034555E-3 0
3.510930418482625E-5 0
-9.25529825535339E-4 0
-1.8649490967886275E-3 0
3.3934620324687373E-4 0
-1.5294928829737212E-3 0
7.595893187473814E-4 0
-6.539179699192203E-3 0
-1.5730912286986557E-3 0
4.863258104162255E-1 0
-1.1413835059897906E-3 0
-6.009513716867679E-3 0
9.805068119453134E-4 0
-2.3297745431635855E-3 0
-5.832475985618772E-4 0
-3.3069101584916323E-3 0
-1.7984193962743112E-3 0
-7.873532629046754E-4 0
1.7734893145821388E-3 0
8.073374799111896E-3 0
-5.226367929066685E-3 0
2.0221131412202778E-4 0
1.1230274562206128E-4 0
-5.00076083135767E-3 0
5.854789005788427E-3 0
-6.032404290674936E-3 0
5.102197486848727E-3 0
-3.5124863895290275E-3 0
-2.789321637236923E-3 0
4.067961757705E-3 0
-1.052717648804697E-2 0
-1.1263532241434598E-2 0
-2.5984010397129553E-3 0
6.00337069760584E-3 0
-2.644772593884358E-4 0
5.595981492747623E-3 0
-2.6430560244551315E-3 0
-9.983360574788807E-3 0
-9.326626523756086E-3 0
5.591353244450386E-3 0
-2.104563762900242E-3 0
-3.5708083555102067E-3 0
5.190081392431155E-3 0
-6.951182279186773E-3 0
2.4688276866943718E-3 0
1.555164289131371E-4 0
3.127576183954293E-3 0
1.984127062595203E-3 0
2.019342530473846E-3 0
3.1503837551187415E-3 0
3.839934918105933E-4 0
2.2459149254594655E-3 0
3.5500975688064094E-4 0
-7.422094957021324E-4 0
-1.8758440936869855E-3 0
-5.89915856979648E-5 0
-2.150909815372965E-3 0
7.441039265925486E-4 0
-6.077289835122479E-3 0
-1.141383505989763E-3 0
4.867187004231203E-1 0
-6.549996279862799E-4 0
-5.799804442055895E-3 0
1.3227680327105129E-3 0
-2.36260029251131E-3 0
-2.8024346060693726E-4 0
-3.2388617057003723E-3 0
-1.54681144808197E-3 0
-5.723217045710145E-4 0
-8.538657879426918E-3 0
5.8922159932985295E-3 0
-5.184419969339941E-3 0
2.748652594624269E-4 0
1.4001485846803358E-4 0
-4.918255562064103E-3 0
6.087175225903562E-3 0
-6.155851650601789E-3 0
4.487819674208828E-3 0
-4.031283201362407E-3 0
-2.8873026764091076E-3 0
4.289904952098904E-3 0
-1.0325166896831859E-2 0
-1.0565662471154166E-2 0
-2.32508440112037E-3 0
5.7510602897817165E-3 0
-6.262549157543618E-4 0
5.547270744095745E-3 0
-2.6708915651581042E-3 0
-9.312763269277857E-3 0
-9.169697597114872E-3 0
6.032785858515725E-3 0
-2.2191240114853013E-3 0
-3.1340946242379227E-3 0
4.97674052593787E-3 0
-4.3160013070554174E-4 0
1.9229226626975016E-3 0
1.9322721103104846E-4 0
3.1096435502190943E-3 0
1.8738739681637491E-3 0
1.9304380803440257E-3 0
3.1297346132060895E-3 0
4.5457289820402893E-4 0
2.35548289031361E-3 0
3.3880839703539486E-4 0
-8.979426800832074E-4 0
-2.3783425711051617E-3 0
-5.573100787200962E-4 0
-2.2976556417720773E-3 0
7.188350244293003E-4 0
-6.00951371686769E-3 0
-6.549996279862508E-4 0
4.8698360499272236E-1 0
-5.5086295095774437E-5 0
-5.7264738064557565E-3 0
1.7907394386841298E-3 0
-2.4418034328379493E-3 0
1.54226732789498E-4 0
-3.1740543747058084E-3 0
-1.4277591000084666E-3 0
6.476125447694918E-3 0
-6.29544411215277E-3 0
6.008800298803039E-3 0
-5.202526561281648E-3 0
4.6797848034087056E-4 0
2.116418468171181E-4 0
-4.825648769364174E-3 0
5.998628704760573E-3 0
-6.454219212606978E-3 0
4.533548142713169E-3 0
-3.840752033358869E-3 0
-2.3874400677061213E-3 0
4.93464278177461E-3 0
-9.878837663677448E-3 0
-9.740353638640162E-3 0
-2.4629227439086935E-3 0
5.595737310668111E-3 0
-9.592034291713201E-4 0
5.597846995864147E-3 0
-2.6337756335777112E-3 0
-8.844072548098257E-3 0
-9.338867447807576E-3 0
6.513479361405109E-3 0
-2.613835147614947E-3 0
-3.0451308569677915E-3 0
-1.8304360405112276E-3 0
-2.4056618800542256E-4 0
1.968159517368453E-3 0
1.3940445635118734E-4 0
3.043154364747709E-3 0
1.7795826988491982E-3 0
1.9001419348937572E-3 0
3.1384127270677794E-3 0
4.3777414951749597E-4 0
2.281680446146395E-3 0
-1.5000212505954448E-5 0
-1.50358484210433E-3 0
-3.065374850353956E-3 0
-6.218356159838186E-4 0
-2.1742748366992584E-3 0
9.805068119452995E-4 0
-5.799804442055887E-3 0
-5.508629509576551E-5 0
4.8712634785312187E-1 0
5.545147835655604E-4 0
-5.812451984794472E-3 0
2.3132197814815865E-3 0
-2.53068375925154E-3 0
4.648687977013747E-4 0
-2.9818101601215108E-3 0
-4.334785319922268E-3 0
4.779670379132533E-3 0
-6.315645141556471E-3 0
6.220062305418402E-3 0
-5.242133744096092E-3 0
6.552766866838005E-4 0
2.1827940240108252E-4 0
-4.896683960942145E-3 0
6.120164216524795E-3 0
-6.358214817813903E-3 0
5.29834105030414E-3 0
-3.4531566837102115E-3 0
-2.2573845146768197E-3 0
5.2593816822270835E-3 0
-9.501846208688316E-3 0
-9.910974544120212E-3 0
-2.674618836450325E-3 0
5.575372825281495E-3 0
-1.0890240151307828E-3 0
5.799159498199013E-3 0
-2.652947196647542E-3 0
-8.535039022041089E-3 0
-9.607548036466428E-3 0
6.793753916444218E-3 0
-2.5344198388109838E-3 0
-3.4293419584449894E-3 0
-1.2502107901954276E-3 0
-2.268397811350305E-4 0
1.9692332241463884E-3 0
7.340956623510583E-5 0
3.016702734181421E-3 0
1.7432024422087077E-3 0
1.9015602794748832E-3 0
3.1528584783397417E-3 0
3.3147894024093796E-4 0
2.133446306039892E-3 0
-3.6953510846382293E-4 0
-1.7888603613803687E-3 0
-3.1174434644482244E-3 0
-6.248424642522783E-4 0
-2.329774543163594E-3 0
1.3227680327105077E-3 0
-5.726473806455759E-3 0
5.545147835655754E-4 0
4.870322787133941E-1 0
1.1775773043697071E-3 0
-6.079462026415571E-3 0
2.850461283725852E-3 0
-2.532874639369857E-3 0
4.000913751182933E-4 0
-2.597082460955554E-3 0
-3.131037992656033E-3 0
4.905718203611494E-3 0
-6.425670843888407E-3 0
6.475933297243852E-3 0
-5.354127936287045E-3 0
7.482094079343768E-4 0
2.775654957813004E-4 0
-4.908486604395714E-3 0
6.488860903690578E-3 0
-6.37891315371164E-3 0
5.198140144154905E-3 0
-4.055735389968696E-3 0
-2.2100990024359088E-3 0
5.027433874293004E-3 0
-9.389451152573294E-3 0
-9.407431801618342E-3 0
-2.70662681194458E-3 0
5.768041174672936E-3 0
-1.1143079012439037E-3 0
6.014740823415669E-3 0
-2.6886948586719293E-3 0
-8.394521080184816E-3 0
-9.420418596018014E-3 0
6.525739368020826E-3 0
2.920911591021966E-4 0
-2.47818543399202E-3 0
-1.209587084575702E-3 0
-2.521779953575128E-4 0
1.9709640955949724E-3 0
3.004134004219198E-5 0
3.0456275557580767E-3 0
1.7484103990120813E-3 0
1.9230575715298715E-3 0
3.207595449500769E-3 0
2.767482218356503E-4 0
2.0380993102521823E-3 0
-6.088987758770171E-4 0
-1.7722361955655518E-3 0
-3.1262132415506004E-3 0
-5.832475985618779E-4 0
-2.3626002925113175E-3 0
1.7907394386841226E-3 0
-5.812451984794474E-3 0
1.1775773043696943E-3 0
4.866888783130192E-1 0
1.878174863005538E-3 0
-6.512883148134121E-3 0
3.252421385375199E-3 0
-2.2839279521391716E-3 0
8.128353817964878E-3 0
-1.8886775406745937E-3 0
-3.1221685088130657E-3 0
5.119129791537657E-3 0
-6.68965381810688E-3 0
6.738314586268796E-3 0
-5.491107617481738E-3 0
7.91731953457175E-4 0
4.158275840062912E-4 0
-5.1198742657493435E-3 0
6.563669046587483E-3 0
-6.933209728306999E-3 0
5.4241676809311E-3 0
-4.25939403130991E-3 0
-2.0677104716575784E-3 0
5.429513889474096E-3 0
-9.316861672587965E-3 0
-8.945520902958437E-3 0
-2.6980356658844844E-3 0
6.002743873663756E-3 0
-1.200684769470494E-3 0
6.3226624542890575E-3 0
-2.6941952984847048E-3 0
-8.690483637028689E-3 0
-9.246596384280029E-3 0
-2.3244262768367615E-3 0
2.770712881248028E-4 0
-2.4553130432876E-3 0
-1.1842169338653803E-3 0
-2.753295756311637E-4 0
1.994520679752805E-3 0
2.6810985892088E-6 0
3.1321852489201722E-3 0
1.8358764708227917E-3 0
1.9807156617569002E-3 0
3.409310887544108E-3 0
1.306521462001911E-4 0
2.0495943610178815E-3 0
-6.40448795992603E-4 0
-1.770820815999365E-3 0
-3.306910158491631E-3 0
-2.8024346060693655E-4 0
-2.441803432837957E-3 0
2.3132197814815843E-3 0
-6.0794620264155745E-3 0
1.8781748630055403E-3 0
4.8614185687155304E-1 0
2.6403470742053445E-3 0
-6.742027490685729E-3 0
3.03477569241204E-3 0
-1.1938063578247933E-2 0
6.023624188218409E-3 0
-1.95392771585614E-3 0
-3.2763166420226877E-3 0
5.507134397491381E-3 0
-7.059268009847001E-3 0
6.984310262679461E-3 0
-5.605899374554207E-3 0
6.72084736173571E-4 0
5.39344241146085E-4 0
-5.540511738406163E-3 0
6.8754865522249325E-3 0
-7.679427457771584E-3 0
5.543921449982305E-3 0
-4.040023660498797E-3 0
-2.1954313439947475E-3 0
5.907310390174045E-3 0
-9.428762959527355E-3 0
-8.572216194968266E-3 0
-2.695333130366032E-3 0
6.326360868037706E-3 0
-1.615479956454481E-3 0
6.878304418676379E-3 0
-2.8946194142877493E-3 0
-9.061345132043581E-3 0
3.2639628279657615E-3 0
-1.6897264243064336E-3 0
2.820022771468262E-4 0
-2.462490279674749E-3 0
-1.1654424538830657E-3 0
-2.757742003712871E-4 0
2.0644696490458433E-3 0
-2.8399455673872228E-5 0
3.2285372081947094E-3 0
1.95664333265909E-3 0
2.0270214377479416E-3 0
3.4344271428778535E-3 0
-8.975662618099716E-5 0
2.0667718527908187E-3 0
-8.549559927731889E-4 0
-1.7984193962743073E-3 0
-3.2388617057003744E-3 0
1.5422673278949367E-4 0
-2.530683759251541E-3 0
2.850461283725855E-3 0
-6.5128831481341305E-3 0
2.6403470742053198E-3 0
4.854794111535861E-1 0
3.10282046885761E-3 0
-6.4149356974536964E-3 0
-1.2071691212395376E-2 0
-8.708806463682037E-3 0
6.302783967702937E-3 0
-1.9434297855679898E-3 0
-3.7080108159422767E-3 0
5.956049281593698E-3 0
-7.449081176503959E-3 0
7.150479532941058E-3 0
-5.710728804082704E-3 0
3.687097841398424E-4 0
6.67505624867665E-4 0
-6.207954445536386E-3 0
7.488944178095353E-3 0
-8.089835313887527E-3 0
5.444106017702425E-3 0
-3.575675437465915E-3 0
-2.2903336722486403E-3 0
6.458143173944951E-3 0
-9.625181961170659E-3 0
-8.389420730990058E-3 0
-2.6825903136447234E-3 0
6.8855411306289905E-3 0
-2.272719373193811E-3 0
7.369184322321588E-3 0
-2.9789847727274125E-3 0
-7.0916407662744456E-3 0
2.3301859306493924E-3 0
-1.5326290730791363E-3 0
2.3098414358311629E-4 0
-2.449602373929106E-3 0
-1.232597477041145E-3 0
-2.841031479550409E-4 0
2.155009616633677E-3 0
3.020942448334008E-5 0
3.22241735061546E-3 0
2.0452961527190746E-3 0
1.7867077326267973E-3 0
3.5173968318666636E-3 0
-1.1189130510506726E-4 0
1.8374226494072938E-3 0
-7.873532629046765E-4 0
-1.5468114480819734E-3 0
-3.174054374705814E-3 0
4.648687977013886E-4 0
-2.532874639369877E-3 0
3.2524213853752162E-3 0
-6.742027490685748E-3 0
3.1028204688576225E-3 0
4.853979488513819E-1 0
2.2481743910987093E-3 0
-2.915689417730316E-3 0
-8.94172302377523E-3 0
-9.090921865247207E-3 0
6.36452662035611E-3 0
-1.456224882810734E-3 0
-4.136163698834179E-3 0
6.114114777776132E-3 0
-7.487274814633771E-3 0
6.915945414128254E-3 0
-5.501541369713485E-3 0
-7.890079405288624E-5 0
1.009833521892618E-3 0
-6.822946565991944E-3 0
7.4466412311407E-3 0
-7.538896371208613E-3 0
5.1805641062592465E-3 0
-3.1653852766041057E-3 0
-2.638095101523192E-3 0
6.792845275204578E-3 0
-9.407327579077649E-3 0
-8.674322459445603E-3 0
-2.8830562220809233E-3 0
7.3742120717193585E-3 0
-2.0165333840581347E-3 0
7.035897099382199E-3 0
1.063965283416279E-3 0
-5.011884447063431E-3 0
2.0797868991608887E-3 0
-1.4393349286114115E-3 0
9.430880097713051E-5 0
-2.4696975321678526E-3 0
-1.3754162422998455E-3 0
-2.9946456956466176E-4 0
2.0870984663333976E-3 0
1.1596662043089162E-4 0
3.2267533253837605E-3 0
2.1250464142186813E-3 0
2.0260570607594517E-3 0
3.499987120193364E-3 0
-9.013086184883257E-5 0
1.7734893145821395E-3 0
-5.723217045710135E-4 0
-1.4277591000084616E-3 0
-2.9818101601215194E-3 0
4.0009137511830723E-4 0
-2.283927952139178E-3 0
3.0347756924120383E-3 0
-6.414935697453708E-3 0
2.2481743910987284E-3 0
4.8601042777861264E-1 0
8.498582904434759E-3 0
-1.9897077851596962E-3 0
-9.208559905139505E-3 0
-9.288894467955009E-3 0
6.037816621451998E-3 0
-1.4630391715620382E-3 0
-3.942174834821105E-3 0
5.637020541407256E-3 0
-7.106771044154726E-3 0
6.459274893755044E-3 0
-5.452939422324526E-3 0
-3.103989025754802E-4 0
6.007618405976518E-4 0
-6.604754018703804E-3 0
6.678615657296163E-3 0
-6.937446860165744E-3 0
4.964742248530954E-3 0
-3.052821796006207E-3 0
-2.530303307997219E-3 0
6.536524617813981E-3 0
-9.234893359140753E-3 0
-9.052660525836037E-3 0
-2.974383077120646E-3 0
7.037231165516985E-3 0
-1.1013449422261489E-3 0
-8.194648525803423E-4 0
7.932652286240518E-3 0
-2.6130026479620266E-3 0
-1.2397609992728043E-2 0
-1.1657557703814365E-2 0
7.917584623716566E-3 0
-2.4686025187440307E-3 0
-4.401189519548223E-3 0
6.506391133767251E-3 0
-8.551203790452757E-3 0
8.077877655710821E-3 0
-7.214284274601959E-3 0
-2.3270073299463893E-5 0
-2.327007329945435E-5 0
-7.213292603044348E-3 0
8.0733747991119E-3 0
-8.53865787942693E-3 0
6.4761254476949255E-3 0
-4.334785319922269E-3 0
-2.597082460955546E-3 0
8.12835381796488E-3 0
-1.1938063578247938E-2 0
-1.2071691212395387E-2 0
-2.9156894177303125E-3 0
8.498582904434764E-3 0
6.334022607687554E-1 0
-2.5982572360448916E-2 0
4.061255410132289E-2 0
-2.3036576689517706E-2 0
1.3309543040689221E-2 0
-4.813719145745785E-3 0
1.7367120526913492E-2 0
8.084187743704951E-3 0
2.625230644729609E-3 0
-1.4936888095593459E-2 0
5.747360874630673E-3 0
-2.2093665206635173E-2 0
-1.014402081421367E-2 0
-1.014402081421394E-2 0
-2.211795282112903E-2 0
5.8576429981392125E-3 0
-1.5216349486914709E-2 0
3.1791527408765816E-3 0
7.1022684472682555E-3 0
1.901444762015241E-2 0
-7.520515952884872E-3 0
1.752666443110902E-2 0
-2.9372130881700063E-2 0
4.763342566733483E-2 0
-3.0783800440267337E-2 0
7.932652286241442E-3 0
-4.4115436164691676E-4 0
5.749455708761212E-3 0
-1.9248364473507696E-3 0
-9.06834190655443E-3 0
-8.540918682689046E-3 0
5.731230376325754E-3 0
-1.8535055046623955E-3 0
-3.216917446961084E-3 0
4.715456794711095E-3 0
-6.292074933464934E-3 0
5.743591758309151E-3 0
-5.680410482360937E-3 0
7.044059895859557E-5 0
1.1019078226880915E-4 0
-5.2263679290666856E-3 0
5.892215993298527E-3 0
-6.295444112152768E-3 0
4.779670379132538E-3 0
-3.1310379926560417E-3 0
-1.8886775406745946E-3 0
6.02362418821842E-3 0
-8.708806463682045E-3 0
-8.941723023775223E-3 0
-1.9897077851596962E-3 0
-2.5982572360448923E-2 0
5.708000136495159E-1 0
-1.8902867845637262E-2 0
2.9708873087728505E-2 0
-1.6603359553608973E-2 0
9.939897807918336E-3 0
-3.1156739916886355E-3 0
1.3208621020653896E-2 0
6.555604102711102E-3 0
2.6513206607309747E-3 0
-1.016479684329719E-2 0
4.519693185270824E-3 0
-1.7027911685374826E-2 0
-6.86310658787178E-3 0
-6.6337419268999885E-3 0
-1.6430055518446656E-2 0
3.985098004425996E-3 0
-1.1660970572302724E-2 0
2.0776833868382293E-3 0
4.7689768518185075E-3 0
1.386998111541079E-2 0
-5.805144401529639E-3 0
1.2805256919576256E-2 0
-2.0671318791346455E-2 0
3.294307636267489E-2 0
-2.6130026479631897E-3 0
5.750778523182032E-3 0
-4.618913558026034E-4 0
5.718057168821556E-3 0
-1.965924366908954E-3 0
-9.11523271240295E-3 0
-8.585582805582965E-3 0
5.699061857281504E-3 0
-1.8630940991541034E-3 0
-3.2284171700889125E-3 0
4.6311194662803645E-3 0
-6.5202758025737695E-3 0
5.9682600548305095E-3 0
-5.455130690421304E-3 0
2.1631440376290023E-4 0
2.022113141220269E-4 0
-5.184419969339942E-3 0
6.008800298803046E-3 0
-6.315645141556474E-3 0
4.9057182036114965E-3 0
-3.1221685088130653E-3 0
-1.95392771585615E-3 0
6.3027839677029475E-3 0
-9.09092186524722E-3 0
-9.208559905139501E-3 0
4.061255410132289E-2 0
-1.890286784563725E-2 0
5.709560329048894E-1 0
-1.87021206930611E-2 0
2.9960352338961257E-2 0
-1.627966932193259E-2 0
1.0373817387443696E-2 0
-2.533713762459022E-3 0
1.3971574963460331E-2 0
7.413081064037458E-3 0
3.2785607744092783E-3 0
-1.037215021693413E-2 0
4.110269107919957E-3 0
-1.7283011372121543E-2 0
-6.687739157648593E-3 0
-6.740800793039953E-3 0
-1.6622151804316632E-2 0
3.8842240189388426E-3 0
-1.1897523032724351E-2 0
2.087150380904256E-3 0
4.5286605923302815E-3 0
1.3822681604799115E-2 0
-5.84711563302293E-3 0
1.175438179666962E-2 0
-1.893183728097975E-2 0
-1.2397609992726927E-2 0
-1.92042389659077E-3 0
5.722909442950572E-3 0
-5.010168855215398E-4 0
5.66967970514008E-3 0
-2.0194083619810435E-3 0
-9.166050096851576E-3 0
-8.62397350980465E-3 0
5.682770400133405E-3 0
-1.8924536964588412E-3 0
-3.2812465619669507E-3 0
4.428445557999784E-3 0
-6.940341021360654E-3 0
6.292524170167183E-3 0
-5.0327346270593555E-3 0
1.1230274562206155E-4 0
2.7486525946242665E-4 0
-5.202526561281646E-3 0
6.220062305418408E-3 0
-6.425670843888416E-3 0
5.119129791537652E-3 0
-3.27631664202269E-3 0
-1.9434297855680002E-3 0
6.364526620356125E-3 0
-9.288894467955009E-3 0
-2.3036576689517706E-2 0
2.9708873087728512E-2 0
-1.8702120693061097E-2 0
5.711958232663379E-1 0
-1.8415426266777318E-2 0
3.0318789595681343E-2 0
-1.5808880546247583E-2 0
1.0991044964649812E-2 0
-1.7249631430176395E-3 0
1.4875927614358554E-2 0
8.37727395597713E-3 0
3.472762364108479E-3 0
-1.131658634686528E-2 0
4.137857794052725E-3 0
-1.692830304252453E-2 0
-7.475253501679507E-3 0
-6.74273153688274E-3 0
-1.6585344446945864E-2 0
4.171335497212346E-3 0
-1.198031273564662E-2 0
2.2585562534922603E-3 0
4.358965968069824E-3 0
1.387914769053438E-2 0
-5.376247215442438E-3 0
1.080535540785559E-2 0
-1.1657557703815232E-2 0
-9.059989087632246E-3 0
-1.9545201013994535E-3 0
5.677097744939974E-3 0
-5.564323061367935E-4 0
5.608175069051559E-3 0
-2.081450690786219E-3 0
-9.22386731414382E-3 0
-8.669463030127228E-3 0
5.620687525977203E-3 0
-2.0990342045449457E-3 0
-3.691727263958489E-3 0
4.601960154714832E-3 0
-6.574794119727078E-3 0
6.087355167435806E-3 0
-5.000760831357669E-3 0
1.40014858468029E-4 0
4.6797848034087056E-4 0
-5.242133744096091E-3 0
6.47593329724385E-3 0
-6.68965381810689E-3 0
5.50713439749138E-3 0
-3.7080108159422776E-3 0
-1.4562248828107395E-3 0
6.037816621452004E-3 0
1.3309543040689212E-2 0
-1.6603359553608973E-2 0
2.9960352338961254E-2 0
-1.8415426266777314E-2 0
5.715234541794322E-1 0
-1.8022318745218518E-2 0
3.081567281539265E-2 0
-1.5185577131811179E-2 0
1.176803598293622E-2 0
-9.251577137068245E-4 0
1.5684654034584904E-2 0
8.076796700261625E-3 0
2.7987226566902443E-3 0
-1.1483942448448034E-2 0
3.2088766576502652E-3 0
-1.721332229113718E-2 0
-6.980140842406318E-3 0
-6.222307935472812E-3 0
-1.6374165700199967E-2 0
4.503206674053549E-3 0
-1.2090723199703985E-2 0
2.4256464608613765E-3 0
4.227522004435496E-3 0
1.3678827908639545E-2 0
-4.484600223777706E-3 0
7.917584623717165E-3 0
-8.529686328192598E-3 0
-9.099375835267234E-3 0
-2.0076308432461507E-3 0
5.611676588278588E-3 0
-6.297856744880465E-4 0
5.5317146181573015E-3 0
-2.163574729756558E-3 0
-9.321898148707784E-3 0
-8.821361969144926E-3 0
5.48064517389569E-3 0
-2.237903069042902E-3 0
-3.8569243751527954E-3 0
4.847737137126682E-3 0
-6.299497503847333E-3 0
5.854789005788429E-3 0
-4.918255562064107E-3 0
2.1164184681711907E-4 0
6.552766866837989E-4 0
-5.354127936287048E-3 0
6.738314586268796E-3 0
-7.059268009847003E-3 0
5.956049281593699E-3 0
-4.136163698834186E-3 0
-1.463039171562042E-3 0
-4.813719145745779E-3 0
9.93989780791834E-3 0
-1.6279669321932574E-2 0
3.031878959568132E-2 0
-1.8022318745218476E-2 0
5.719769954826416E-1 0
-1.746778199286077E-2 0
3.148665899299341E-2 0
-1.4411966165222948E-2 0
1.2466261121869559E-2 0
-4.0087130844086987E-4 0
1.5280019302673075E-2 0
7.907787704578995E-3 0
2.8286506508860203E-3 0
-1.1430643350543628E-2 0
3.0262785793882135E-3 0
-1.6552977003065336E-2 0
-6.630945031156819E-3 0
-5.797429291010565E-3 0
-1.635425708998508E-2 0
4.768162253024788E-3 0
-1.2297296742857238E-2 0
2.5107097406893253E-3 0
4.6335629698434615E-3 0
1.3520491364575E-2 0
-2.46860251874441E-3 0
5.741597576702212E-3 0
-8.572700388312657E-3 0
-9.160781864872588E-3 0
-2.088097378259762E-3 0
5.519850314262843E-3 0
-7.215007358840318E-4 0
5.4399841674650585E-3 0
-2.298654868738715E-3 0
-9.575392594476699E-3 0
-9.196961533712664E-3 0
5.028710233655514E-3 0
-2.5155916292723063E-3 0
-3.6051043151342746E-3 0
4.813317766998976E-3 0
-6.03240429067494E-3 0
6.087175225903562E-3 0
-4.825648769364173E-3 0
2.182794024010783E-4 0
7.482094079343801E-4 0
-5.49110761748173E-3 0
6.984310262679461E-3 0
-7.449081176503963E-3 0
6.114114777776142E-3 0
-3.942174834821111E-3 0
1.7367120526913506E-2 0
-3.115673991688642E-3 0
1.0373817387443677E-2 0
-1.5808880546247565E-2 0
3.081567281539264E-2 0
-1.7467781992860778E-2 0
5.726458742251321E-1 0
-1.6658207562095836E-2 0
3.240122241923789E-2 0
-1.3589346220435287E-2 0
1.316560466089452E-2 0
-3.840462394936131E-4 0
1.5745002763324117E-2 0
7.687844434937175E-3 0
1.7977001884992062E-3 0
-1.2121398569046074E-2 0
3.02769120750161E-3 0
-1.643448993793334E-2 0
-6.541339787168153E-3 0
-5.6134003724110275E-3 0
-1.6569087221031797E-2 0
5.043844757118706E-3 0
-1.2744842552337201E-2 0
2.5886439482219648E-3 0
5.459114657772518E-3 0
-4.401189519547949E-3 0
-1.8495163545795502E-3 0
5.697974776012051E-3 0
-8.64154731067025E-3 0
-9.261083238173477E-3 0
-2.2087607616634196E-3 0
5.408878752669651E-3 0
-7.981979286526479E-4 0
5.351643445630378E-3 0
-2.480925060943305E-3 0
-1.0092404156780059E-2 0
-9.591382671950161E-3 0
5.339967590841083E-3 0
-2.441475447516838E-3 0
-3.0921535897368785E-3 0
5.10219748684873E-3 0
-6.155851650601785E-3 0
5.99862870476057E-3 0
-4.896683960942152E-3 0
2.77565495781295E-4 0
7.917319534571738E-4 0
-5.605899374554206E-3 0
7.1504795329410615E-3 0
-7.487274814633767E-3 0
5.637020541407258E-3 0
8.084187743704943E-3 0
1.32086210206539E-2 0
-2.5337137624589917E-3 0
1.0991044964649803E-2 0
-1.5185577131811167E-2 0
3.148665899299343E-2 0
-1.6658207562095788E-2 0
5.736546384156209E-1 0
-1.5481688497393986E-2 0
3.352750012753605E-2 0
-1.296153601311749E-2 0
1.2986367199789172E-2 0
-8.156289389888736E-4 0
1.5286532020433327E-2 0
6.297169664966465E-3 0
8.379845589221965E-4 0
-1.266537256381726E-2 0
2.801252734566389E-3 0
-1.649513749208514E-2 0
-6.545393322484004E-3 0
-5.576653725306242E-3 0
-1.7023713158848285E-2 0
5.3957013604051815E-3 0
-1.3236724951630637E-2 0
2.472538821872871E-3 0
6.506391133767088E-3 0
-3.224182990259654E-3 0
-1.8873729841006764E-3 0
5.627426986576225E-3 0
-8.759280495430163E-3 0
-9.423353094223234E-3 0
-2.3714422233016034E-3 0
5.3291067990936195E-3 0
-7.720797259988621E-4 0
5.412176883404649E-3 0
-2.5633139303449146E-3 0
-9.993916432366814E-3 0
-1.0038999009409792E-2 0
5.159702127261021E-3 0
-2.3018809902591504E-3 0
-3.512486389529017E-3 0
4.487819674208819E-3 0
-6.454219212606979E-3 0
6.120164216524787E-3 0
-4.908486604395722E-3 0
4.158275840062814E-4 0
6.720847361735648E-4 0
-5.7107288040827E-3 0
6.915945414128249E-3 0
-7.106771044154721E-3 0
2.6252306447296083E-3 0
6.555604102711105E-3 0
1.3971574963460309E-2 0
-1.7249631430176432E-3 0
1.1768035982936211E-2 0
-1.441196616522295E-2 0
3.2401222419237874E-2 0
-1.5481688497393979E-2 0
5.75098853740852E-1 0
-1.3973567460144413E-2 0
3.476996744763031E-2 0
-1.2293672752878727E-2 0
1.3724564876022475E-2 0
-1.552311780331798E-3 0
1.273552909868601E-2 0
4.146024147569399E-3 0
-3.782618024958402E-4 0
-1.3134011019624811E-2 0
2.9293439226403613E-3 0
-1.6613028720531376E-2 0
-6.570716627699753E-3 0
-5.936715624473533E-3 0
-1.7498682105520327E-2 0
5.144527283930524E-3 0
-1.2749947912822501E-2 0
-8.551203790452674E-3 0
4.7041130810601805E-3 0
-3.259759723310613E-3 0
-1.963692932263336E-3 0
5.495235909189701E-3 0
-8.968568024187634E-3 0
-9.670063625925806E-3 0
-2.4846423944149066E-3 0
5.4606615945389046E-3 0
-5.359339232918442E-4 0
5.5448966144192105E-3 0
-2.6209063747473366E-3 0
-1.073694391623944E-2 0
-1.0188404034100795E-2 0
4.67213869912627E-3 0
-2.7893216372369104E-3 0
-4.031283201362402E-3 0
4.533548142713167E-3 0
-6.358214817813905E-3 0
6.4888609036905815E-3 0
-5.1198742657493496E-3 0
5.393442411460765E-4 0
3.687097841398367E-4 0
-5.501541369713486E-3 0
6.459274893755036E-3 0
-1.4936888095593457E-2 0
2.6513206607309708E-3 0
7.413081064037471E-3 0
1.4875927614358558E-2 0
-9.251577137068204E-4 0
1.2466261121869562E-2 0
-1.3589346220435285E-2 0
3.352750012753605E-2 0
-1.3973567460144408E-2 0
5.769048568162394E-1 0
-1.2235171021547345E-2 0
3.559698846726563E-2 0
-1.2932908345328563E-2 0
1.3086228970407272E-2 0
-3.4282626892655583E-3 0
1.0630447798156575E-2 0
3.121149950222229E-3 0
-2.5105793418891005E-4 0
-1.2943738283452712E-2 0
3.4367838327118167E-3 0
-1.7001313224441233E-2 0
-6.668693185988569E-3 0
-6.565849937680027E-3 0
-1.729365813954109E-2 0
4.530982436698761E-3 0
8.07787765571075E-3 0
-6.279772271210276E-3 0
4.623112322295895E-3 0
-3.287197292192887E-3 0
-2.1896071183770227E-3 0
5.3189943410407595E-3 0
-9.26010784994951E-3 0
-1.0019728521454269E-2 0
-2.3833948848370977E-3 0
5.700091400675704E-3 0
-2.376229920241438E-4 0
5.59867031665258E-3 0
-2.9780222624177233E-3 0
-1.0869996883454426E-2 0
-1.0153605869023367E-2 0
4.067961757705012E-3 0
-2.8873026764090932E-3 0
-3.840752033358858E-3 0
5.298341050304152E-3 0
-6.378913153711647E-3 0
6.563669046587475E-3 0
-5.540511738406167E-3 0
6.675056248676631E-4 0
-7.890079405288816E-5 0
-5.452939422324524E-3 0
5.747360874630663E-3 0
-1.0164796843297186E-2 0
3.278560774409276E-3 0
8.377273955977128E-3 0
1.5684654034584907E-2 0
-4.0087130844086277E-4 0
1.3165604660894531E-2 0
-1.2961536013117494E-2 0
3.476996744763031E-2 0
-1.223517102154735E-2 0
5.798472547433976E-1 0
-9.943744708546122E-3 0
3.8027452531896176E-2 0
-1.2963260277257938E-2 0
9.687449763170437E-3 0
-6.0783536269617975E-3 0
1.0716082557649043E-2 0
3.929591691225416E-3 0
1.2290833764513392E-3 0
-1.2719694323874608E-2 0
3.834112606912192E-3 0
-1.8159175328911894E-2 0
-6.645299120182149E-3 0
-7.175040698873886E-3 0
-1.7181114782106398E-2 0
-7.214284274601869E-3 0
5.815765022212696E-3 0
-6.454875745301715E-3 0
4.581528354544933E-3 0
-3.599121214630159E-3 0
-2.2537495289209094E-3 0
5.076772850415499E-3 0
-9.497878468573362E-3 0
-9.758006360421916E-3 0
-2.3103757638017913E-3 0
5.995520155411633E-3 0
-2.9988752135764584E-4 0
5.497772826211996E-3 0
-2.8833851263181175E-3 0
-1.0768668043445732E-2 0
-1.052717648804697E-2 0
4.289904952098918E-3 0
-2.3874400677061152E-3 0
-3.45315668371021E-3 0
5.198140144154907E-3 0
-6.933209728307E-3 0
6.875486552224924E-3 0
-6.207954445536391E-3 0
1.009833521892618E-3 0
-3.103989025754835E-4 0
-2.2093665206635155E-2 0
4.519693185270821E-3 0
-1.0372150216934125E-2 0
3.4727623641084894E-3 0
8.076796700261624E-3 0
1.528001930267306E-2 0
-3.840462394936035E-4 0
1.2986367199789184E-2 0
-1.2293672752878715E-2 0
3.559698846726563E-2 0
-9.94374470854618E-3 0
5.81279318519516E-1 0
-1.015730414698266E-2 0
3.927314526061998E-2 0
-1.3964188155795271E-2 0
9.728344148784223E-3 0
-3.5497773658484865E-3 0
1.2982038865534793E-2 0
5.8726412863911994E-3 0
2.4655166075656662E-3 0
-1.2419127086325088E-2 0
4.556206263448117E-3 0
-1.8525849574408417E-2 0
-5.309727404057063E-3 0
-7.572923762258969E-3 0
-2.3270073299614085E-5 0
-5.622410311218411E-3 0
6.03140595153696E-3 0
-6.808155209506784E-3 0
4.724920566457187E-3 0
-3.789507880906301E-3 0
-2.4492299719158137E-3 0
5.3731640773743644E-3 0
-9.929540278120071E-3 0
-1.0544332600523041E-2 0
-2.6061190852095526E-3 0
5.773734043745606E-3 0
-8.967529476981088E-4 0
5.9376082522006905E-3 0
-3.154582252895367E-3 0
-1.1263532241434589E-2 0
-1.0325166896831857E-2 0
4.934642781774613E-3 0
-2.2573845146768145E-3 0
-4.0557353899686914E-3 0
5.424167680931104E-3 0
-7.67942745777158E-3 0
7.4889441780953475E-3 0
-6.822946565991944E-3 0
6.007618405976495E-4 0
-1.0144020814213653E-2 0
-1.7027911685374816E-2 0
4.110269107919975E-3 0
-1.131658634686529E-2 0
2.7987226566902495E-3 0
7.907787704578997E-3 0
1.5745002763324113E-2 0
-8.156289389888715E-4 0
1.3724564876022463E-2 0
-1.2932908345328564E-2 0
3.802745253189618E-2 0
-1.0157304146982658E-2 0
5.912232809921889E-1 0
-9.22424375310487E-3 0
3.9286003926798894E-2 0
-1.302164727990269E-2 0
1.3232014039999112E-2 0
-1.8309509441164643E-3 0
1.5751357917689928E-2 0
6.966164900525929E-3 0
3.914143614895066E-3 0
-1.3038145942998156E-2 0
6.225030344146727E-3 0
-1.937823183377892E-2 0
-6.273022925757383E-3 0
-2.32700732993284E-5 0
1.2440427816127052E-5 0
-5.518276587127822E-3 0
6.160338358313372E-3 0
-6.697754531469477E-3 0
4.780320642880196E-3 0
-3.671465972490776E-3 0
-2.4746719340501054E-3 0
5.050243395971299E-3 0
-1.0381015349817177E-2 0
-1.1241900060662585E-2 0
-3.1593463438517296E-3 0
5.9376082522006905E-3 0
-8.967529476980672E-4 0
5.772034285818353E-3 0
-2.5984010397129584E-3 0
-1.0565662471154173E-2 0
-9.878837663677453E-3 0
5.2593816822270895E-3 0
-2.2100990024359066E-3 0
-4.259394031309907E-3 0
5.543921449982303E-3 0
-8.089835313887532E-3 0
7.446641231140703E-3 0
-6.60475401870381E-3 0
-1.0144020814213924E-2 0
-6.863106587871768E-3 0
-1.728301137212155E-2 0
4.137857794052735E-3 0
-1.1483942448448031E-2 0
2.828650650886018E-3 0
7.687844434937169E-3 0
1.5286532020433322E-2 0
-1.5523117803317873E-3 0
1.3086228970407282E-2 0
-1.2963260277257941E-2 0
3.927314526061999E-2 0
-9.224243753104863E-3 0
5.912232809921891E-1 0
-1.0172081318573466E-2 0
3.8094550840908216E-2 0
-1.3098920745459096E-2 0
1.4034512076284908E-2 0
-1.311737626781266E-3 0
1.647268797270507E-2 0
6.875781143417498E-3 0
4.2201104989359845E-3 0
-1.32772841085737E-2 0
6.201187053315259E-3 0
-1.8947677951351945E-2 0
-7.213292603044452E-3 0
3.801738076650301E-5 0
1.5091351627578452E-4 0
-5.18581777277729E-3 0
5.994747695444489E-3 0
-6.2836534980204055E-3 0
4.765254544022789E-3 0
-3.185656711711753E-3 0
-2.537789552692624E-3 0
4.361608192029005E-3 0
-1.055046625799719E-2 0
-1.0768697908495174E-2 0
-2.8786420859636366E-3 0
5.496094118886625E-3 0
-3.020107234255597E-4 0
6.0033706976058325E-3 0
-2.325084401120383E-3 0
-9.740353638640162E-3 0
-9.501846208688308E-3 0
5.027433874293003E-3 0
-2.067710471657575E-3 0
-4.040023660498793E-3 0
5.444106017702435E-3 0
-7.538896371208607E-3 0
6.678615657296162E-3 0
-2.2117952821129022E-2 0
-6.63374192689999E-3 0
-6.687739157648582E-3 0
-1.6928303042524528E-2 0
3.2088766576502704E-3 0
-1.1430643350543614E-2 0
1.7977001884991962E-3 0
6.297169664966462E-3 0
1.2735529098686008E-2 0
-3.428262689265554E-3 0
9.687449763170456E-3 0
-1.3964188155795238E-2 0
3.9286003926798894E-2 0
-1.0172081318573467E-2 0
5.813168156442822E-1 0
-1.005643189784849E-2 0
3.584494751738111E-2 0
-1.2728540766197125E-2 0
1.3640990828402874E-2 0
-1.2712541359260936E-3 0
1.6404291926496225E-2 0
6.726607123764941E-3 0
5.10985112875411E-3 0
-1.2010745313551755E-2 0
5.543855099616772E-3 0
8.073374799111908E-3 0
-5.2386699665298185E-3 0
2.1022222784124474E-4 0
1.182550613281545E-4 0
-4.910181457678106E-3 0
6.016450981687823E-3 0
-5.969255221808359E-3 0
5.029516941230088E-3 0
-3.692412289235133E-3 0
-2.94451689503441E-3 0
4.068009662783853E-3 0
-1.0130191041854251E-2 0
-1.0891533480319784E-2 0
-2.970399800827781E-3 0
5.606374701198344E-3 0
-2.6447725938844697E-4 0
5.751060289781744E-3 0
-2.462922743908674E-3 0
-9.910974544120212E-3 0
-9.389451152573294E-3 0
5.4295138894741015E-3 0
-2.195431343994745E-3 0
-3.5756754374659124E-3 0
5.180564106259247E-3 0
-6.937446860165742E-3 0
5.857642998139208E-3 0
-1.6430055518446653E-2 0
-6.740800793039955E-3 0
-7.475253501679512E-3 0
-1.7213322291137194E-2 0
3.0262785793882152E-3 0
-1.2121398569046067E-2 0
8.379845589222033E-4 0
4.146024147569413E-3 0
1.0630447798156596E-2 0
-6.078353626961795E-3 0
9.728344148784235E-3 0
-1.3021647279902675E-2 0
3.80945508409082E-2 0
-1.0056431897848501E-2 0
5.8009750116787E-1 0
-1.2718013293221626E-2 0
3.556227647172816E-2 0
-1.4098564930296806E-2 0
1.4635171884281267E-2 0
-2.139408023483823E-3 0
1.756019314244177E-2 0
6.521026600490359E-3 0
4.781633795457367E-3 0
-1.1392565829899849E-2 0
-8.53865787942687E-3 0
5.9035581685426E-3 0
-5.15308659518388E-3 0
3.461005606359975E-4 0
2.654507011489663E-4 0
-4.771076627145355E-3 0
6.181839484801667E-3 0
-6.1521224706831265E-3 0
4.439351561456519E-3 0
-4.031282128532292E-3 0
-2.7322243509022735E-3 0
4.600106099866701E-3 0
-1.0132787777949563E-2 0
-1.0758041590036486E-2 0
-2.6352854450429433E-3 0
5.595981492747638E-3 0
-6.262549157543476E-4 0
5.595737310668082E-3 0
-2.6746188364503297E-3 0
-9.407431801618342E-3 0
-9.316861672587962E-3 0
5.9073103901740465E-3 0
-2.29033367224864E-3 0
-3.1653852766040966E-3 0
4.964742248530953E-3 0
-1.5216349486914709E-2 0
3.985098004425995E-3 0
-1.662215180431663E-2 0
-6.742731536882733E-3 0
-6.980140842406308E-3 0
-1.655297700306533E-2 0
3.0276912075016113E-3 0
-1.266537256381726E-2 0
-3.7826180249584E-4 0
3.121149950222245E-3 0
1.0716082557649036E-2 0
-3.5497773658484904E-3 0
1.3232014039999105E-2 0
-1.3098920745459104E-2 0
3.5844947517381105E-2 0
-1.2718013293221565E-2 0
5.777689550837511E-1 0
-1.5336234090906415E-2 0
3.543889359388548E-2 0
-1.6028718492487465E-2 0
1.533249083188376E-2 0
-4.0044548114127575E-3 0
1.7779824389003766E-2 0
5.290511651818829E-3 0
3.736093514130574E-3 0
6.4761254476948E-3 0
-6.288175732818617E-3 0
6.033095601022505E-3 0
-5.147175743825873E-3 0
5.578243801263888E-4 0
3.131452364199521E-4 0
-4.752848954991641E-3 0
6.021144706591772E-3 0
-6.454248448687108E-3 0
4.58203130783331E-3 0
-3.660625607103431E-3 0
-2.150944356125031E-3 0
5.04451411868044E-3 0
-9.988709000583285E-3 0
-9.976847840689402E-3 0
-2.6430560244551245E-3 0
5.547270744095733E-3 0
-9.592034291713406E-4 0
5.57537282528148E-3 0
-2.7066268119445886E-3 0
-8.945520902958448E-3 0
-9.428762959527355E-3 0
6.458143173944952E-3 0
-2.6380951015232005E-3 0
-3.052821796006204E-3 0
3.179152740876581E-3 0
-1.1660970572302727E-2 0
3.884224018938846E-3 0
-1.6585344446945857E-2 0
-6.222307935472817E-3 0
-6.630945031156822E-3 0
-1.643448993793334E-2 0
2.8012527345663827E-3 0
-1.313401101962481E-2 0
-2.5105793418891964E-4 0
3.929591691225409E-3 0
1.2982038865534791E-2 0
-1.830950944116468E-3 0
1.403451207628491E-2 0
-1.2728540766197128E-2 0
3.556227647172817E-2 0
-1.5336234090906392E-2 0
5.772054275511248E-1 0
-1.8412860488249215E-2 0
3.6147812818086E-2 0
-1.8861868482141962E-2 0
1.6651840333240804E-2 0
-6.615131084082508E-3 0
1.79286521275088E-2 0
5.0094054685887734E-3 0
-4.334785319922124E-3 0
4.7756768141752805E-3 0
-6.3145822351420395E-3 0
6.237624113026744E-3 0
-5.204960379421096E-3 0
7.003914800960254E-4 0
2.493653116013223E-4 0
-4.896655300685436E-3 0
6.097669398435418E-3 0
-6.361930241303141E-3 0
5.370722170154238E-3 0
-3.3604877321654096E-3 0
-2.224778257261776E-3 0
5.22677542481204E-3 0
-9.594514078715435E-3 0
-9.983360574788804E-3 0
-2.6708915651581164E-3 0
5.597846995864155E-3 0
-1.0890240151307982E-3 0
5.768041174672927E-3 0
-2.698035665884481E-3 0
-8.572216194968275E-3 0
-9.625181961170673E-3 0
6.792845275204572E-3 0
-2.53030330799721E-3 0
7.1022684472682495E-3 0
2.0776833868382323E-3 0
-1.1897523032724355E-2 0
4.1713354972123425E-3 0
-1.637416570019997E-2 0
-5.7974292910105705E-3 0
-6.541339787168165E-3 0
-1.6495137492085133E-2 0
2.9293439226403674E-3 0
-1.2943738283452716E-2 0
1.2290833764513293E-3 0
5.872641286391214E-3 0
1.5751357917689935E-2 0
-1.3117376267812674E-3 0
1.3640990828402871E-2 0
-1.409856493029681E-2 0
3.543889359388548E-2 0
-1.8412860488249222E-2 0
5.777369914510859E-1 0
-2.1924300685515045E-2 0
3.782959940165976E-2 0
-2.2250859730886932E-2 0
1.8158354629506223E-2 0
-8.408046660712E-3 0
1.684214316571251E-2 0
-2.5970824609556345E-3 0
-3.141399047490333E-3 0
4.892866781851127E-3 0
-6.430921274967522E-3 0
6.482636187440983E-3 0
-5.342172198434096E-3 0
7.482374420550275E-4 0
2.4642763877335996E-4 0
-4.981325299985455E-3 0
6.39418558603064E-3 0
-6.441735024666091E-3 0
5.247155091361223E-3 0
-3.988688842814585E-3 0
-2.2771455495900067E-3 0
4.978418319718006E-3 0
-9.326626523756092E-3 0
-9.312763269277853E-3 0
-2.6337756335777255E-3 0
5.799159498199022E-3 0
-1.1143079012439052E-3 0
6.002743873663752E-3 0
-2.695333130366034E-3 0
-8.389420730990063E-3 0
-9.407327579077638E-3 0
6.536524617813966E-3 0
1.901444762015243E-2 0
4.768976851818509E-3 0
2.0871503809042624E-3 0
-1.1980312735646622E-2 0
4.503206674053551E-3 0
-1.635425708998508E-2 0
-5.6134003724110275E-3 0
-6.5453933224839935E-3 0
-1.6613028720531366E-2 0
3.4367838327118098E-3 0
-1.2719694323874604E-2 0
2.465516607565677E-3 0
6.966164900525921E-3 0
1.647268797270508E-2 0
-1.2712541359260988E-3 0
1.4635171884281263E-2 0
-1.6028718492487475E-2 0
3.6147812818085975E-2 0
-2.1924300685515055E-2 0
5.795684832241149E-1 0
-2.6021621158856523E-2 0
4.060933454742505E-2 0
-2.59722772172775E-2 0
1.88304798604561E-2 0
-7.623224253696388E-3 0
8.128353817964963E-3 0
-1.899917950813521E-3 0
-3.138061685879487E-3 0
5.107326263330869E-3 0
-6.693225155313454E-3 0
6.738205853464661E-3 0
-5.503013280395573E-3 0
7.465723967314786E-4 0
3.144275636307216E-4 0
-5.267065399346658E-3 0
6.401840809086252E-3 0
-6.949736206714601E-3 0
5.49103998339372E-3 0
-4.32626633377252E-3 0
-2.051186441669906E-3 0
5.591353244450375E-3 0
-9.169697597114862E-3 0
-8.844072548098263E-3 0
-2.65294719664754E-3 0
6.0147408234156804E-3 0
-1.2006847694704752E-3 0
6.326360868037717E-3 0
-2.6825903136447143E-3 0
-8.674322459445633E-3 0
-9.234893359140746E-3 0
-7.520515952884882E-3 0
1.3869981115410795E-2 0
4.528660592330276E-3 0
2.2585562534922724E-3 0
-1.209072319970398E-2 0
4.768162253024794E-3 0
-1.65690872210318E-2 0
-5.5766537253062465E-3 0
-6.570716627699752E-3 0
-1.700131322444124E-2 0
3.834112606912192E-3 0
-1.2419127086325083E-2 0
3.914143614895063E-3 0
6.875781143417503E-3 0
1.6404291926496218E-2 0
-2.1394080234838193E-3 0
1.5332490831883745E-2 0
-1.8861868482141983E-2 0
3.782959940165976E-2 0
-2.6021621158856555E-2 0
5.829161739995052E-1 0
-3.102669671070855E-2 0
4.4446051994912486E-2 0
-2.862052423341729E-2 0
1.7109827318996552E-2 0
-1.1938063578248021E-2 0
6.01528161476783E-3 0
-1.965291543876246E-3 0
-3.28369638568964E-3 0
5.5072203198444905E-3 0
-7.055639825213079E-3 0
6.977728720500089E-3 0
-5.643119569638132E-3 0
5.822179872521046E-4 0
4.138528123420559E-4 0
-5.631372782704735E-3 0
6.967814516435402E-3 0
-7.556470261442703E-3 0
5.42096425365343E-3 0
-4.132353064318651E-3 0
-2.1045637629002376E-3 0
6.032785858515721E-3 0
-9.338867447807575E-3 0
-8.5350390220411E-3 0
-2.6886948586719293E-3 0
6.322662454289076E-3 0
-1.6154799564544414E-3 0
6.885541130629016E-3 0
-2.8830562220809068E-3 0
-9.052660525836032E-3 0
1.7526664431109017E-2 0
-5.805144401529643E-3 0
1.3822681604799112E-2 0
4.3589659680698155E-3 0
2.425646460861388E-3 0
-1.2297296742857233E-2 0
5.0438447571187145E-3 0
-1.7023713158848302E-2 0
-5.936715624473523E-3 0
-6.668693185988581E-3 0
-1.8159175328911887E-2 0
4.556206263448119E-3 0
-1.3038145942998155E-2 0
4.220110498935979E-3 0
6.726607123764936E-3 0
1.7560193142441758E-2 0
-4.0044548114127505E-3 0
1.6651840333240815E-2 0
-2.2250859730886956E-2 0
4.0609334547425054E-2 0
-3.1026696710708544E-2 0
5.876204766748403E-1 0
-3.668693872843168E-2 0
4.657455428597188E-2 0
-2.6848659614224987E-2 0
-1.2071691212395246E-2 0
-8.713235822794582E-3 0
6.2978760844105384E-3 0
-1.9435083804412205E-3 0
-3.7007366325302184E-3 0
5.967629483487855E-3 0
-7.443964302468479E-3 0
7.132834692147666E-3 0
-5.766058346732096E-3 0
2.9749662001136095E-4 0
6.626399502591244E-4 0
-6.052770939479498E-3 0
7.622216180694308E-3 0
-8.223107316486481E-3 0
5.288922201703147E-3 0
-3.5708083555101937E-3 0
-2.2191240114853095E-3 0
6.513479361405119E-3 0
-9.607548036466445E-3 0
-8.394521080184804E-3 0
-2.694195298484703E-3 0
6.8783044186763505E-3 0
-2.272719373193809E-3 0
7.374212071719366E-3 0
-2.9743830771206494E-3 0
-2.937213088170006E-2 0
1.280525691957626E-2 0
-5.847115633022933E-3 0
1.3879147690534374E-2 0
4.227522004435494E-3 0
2.5107097406893474E-3 0
-1.2744842552337217E-2 0
5.395701360405187E-3 0
-1.7498682105520334E-2 0
-6.565849937680031E-3 0
-6.645299120182141E-3 0
-1.852584957440841E-2 0
6.225030344146725E-3 0
-1.327728410857371E-2 0
5.109851128754098E-3 0
6.521026600490353E-3 0
1.777982438900377E-2 0
-6.615131084082532E-3 0
1.8158354629506237E-2 0
-2.5972277217277507E-2 0
4.4446051994912486E-2 0
-3.668693872843164E-2 0
5.931261033844262E-1 0
-3.998575522854138E-2 0
4.403254718388469E-2 0
-2.9156894177305194E-3 0
-8.94302296534438E-3 0
-9.0908529187583E-3 0
6.369498038978526E-3 0
-1.4446198255649416E-3 0
-4.120040584267697E-3 0
6.127238537399182E-3 0
-7.488209089456541E-3 0
6.891702903459045E-3 0
-5.53284178415585E-3 0
-8.841406966162084E-5 0
1.0719453353812854E-3 0
-6.761647182180419E-3 0
7.3853418473291705E-3 0
-7.601009067950231E-3 0
5.190081392431151E-3 0
-3.1340946242379036E-3 0
-2.6138351476149755E-3 0
6.793753916444239E-3 0
-9.420418596018018E-3 0
-8.690483637028687E-3 0
-2.894619414287765E-3 0
7.36918432232161E-3 0
-2.0165333840581235E-3 0
7.037231165516985E-3 0
4.7633425667334826E-2 0
-2.067131879134646E-2 0
1.1754381796669603E-2 0
-5.376247215442437E-3 0
1.3678827908639554E-2 0
4.633562969843458E-3 0
2.588643948221964E-3 0
-1.3236724951630642E-2 0
5.144527283930534E-3 0
-1.7293658139541094E-2 0
-7.175040698873894E-3 0
-5.309727404057068E-3 0
-1.937823183377893E-2 0
6.201187053315253E-3 0
-1.2010745313551766E-2 0
4.781633795457367E-3 0
5.290511651818834E-3 0
1.79286521275088E-2 0
-8.408046660712E-3 0
1.8830479860456106E-2 0
-2.8620524233417315E-2 0
4.657455428597191E-2 0
-3.9985755228541385E-2 0
5.933853721098811E-1 0
-3.3901405359274495E-2 0
8.498582904435066E-3 0
-1.9897201916366826E-3 0
-9.207201874322073E-3 0
-9.28431000729243E-3 0
6.046511238810275E-3 0
-1.4513437059563317E-3 0
-3.931384018206255E-3 0
5.641133176835984E-3 0
-7.114459526765874E-3 0
6.447275297627035E-3 0
-5.43920346983923E-3 0
-2.3256480924074147E-4 0
6.629093431885754E-4 0
-6.666901521294742E-3 0
6.600781446475696E-3 0
-6.951182279186773E-3 0
4.976740525937861E-3 0
-3.045130856967781E-3 0
-2.5344198388109937E-3 0
6.525739368020834E-3 0
-9.246596384280032E-3 0
-9.061345132043576E-3 0
-2.978984772727412E-3 0
7.035897099382197E-3 0
-1.1013449422260886E-3 0
-3.0783800440267337E-2 0
3.2943076362674885E-2 0
-1.893183728097974E-2 0
1.0805355407855587E-2 0
-4.484600223777707E-3 0
1.3520491364575001E-2 0
5.4591146577725146E-3 0
2.4725388218728704E-3 0
-1.2749947912822508E-2 0
4.530982436698762E-3 0
-1.71811147821064E-2 0
-7.572923762258976E-3 0
-6.273022925757392E-3 0
-1.8947677951351962E-2 0
5.543855099616766E-3 0
-1.139256582989986E-2 0
3.7360935141305873E-3 0
5.009405468588768E-3 0
1.6842143165712517E-2 0
-7.6232242536964125E-3 0
1.7109827318996573E-2 0
-2.6848659614225005E-2 0
4.403254718388468E-2 0
-3.390140535927444E-2 0
5.870284111563442E-1 0
