%%MatrixMarket matrix array complex general
%
50 50
4.721465498702459E-1 0
-4.060315047285667E-3 0
6.931004002382165E-4 0
-5.422688109382009E-3 0
1.4657108737616085E-3 0
-2.537454757704436E-3 0
-1.2831706471555006E-4 0
6.734867438502238E-3 0
1.0038957389792945E-3 0
-2.8509987215215504E-3 0
-7.099865177574299E-4 0
5.576595352108012E-4 0
4.05480133107514E-4 0
4.0548013310752137E-4 0
5.56406180271723E-4 0
-7.042954424060927E-4 0
-2.866164008291644E-3 0
1.0374912277594573E-3 0
6.665309455805817E-3 0
8.469480448876023E-6 0
-2.7929666143229857E-3 0
1.895195656361939E-3 0
-6.06713639670808E-3 0
1.3797793991479344E-3 0
-4.602816533941921E-3 0
8.596883211651711E-3 0
-6.148988343731742E-3 0
3.2805656496865533E-3 0
-3.348709986663183E-3 0
-7.336565436755948E-3 0
2.9182525303515987E-3 0
-1.5316962177719239E-2 0
-1.0436972531235966E-3 0
1.2103578019080918E-2 0
1.7613665837343483E-3 0
-3.51885975316803E-3 0
-8.96605180524155E-4 0
6.605345856567281E-4 0
6.605345856567337E-4 0
-8.912870344056095E-4 0
-3.543007717441165E-3 0
1.8216464964657484E-3 0
1.1988435139608723E-2 0
-8.552240301711023E-4 0
-1.5590355640751891E-2 0
3.2574229711359094E-3 0
-7.6621037378421936E-3 0
-3.251199968686144E-3 0
3.4989165414717736E-3 0
-6.661726185338752E-3 0
-4.060315047285666E-3 0
4.851991080541235E-1 0
-2.9832515872739874E-3 0
4.669992840711348E-4 0
-4.006058997554457E-3 0
1.0142833522973843E-3 0
-1.8759145576163103E-3 0
-1.1123616226179518E-4 0
4.882398278623218E-3 0
7.120561614904028E-4 0
-2.1753902029086423E-3 0
-6.344605762634839E-4 0
3.778175771437999E-4 0
1.674450646919613E-4 0
2.1881121445723327E-4 0
4.455393430615123E-4 0
-5.349163393472368E-4 0
-2.0873098889305467E-3 0
7.683199202159027E-4 0
4.901125010739173E-3 0
6.761844921096387E-5 0
-1.9895897440558538E-3 0
1.469851530105217E-3 0
-4.386182281286982E-3 0
7.714870557930477E-4 0
-6.1489883437322816E-3 0
4.56309278649654E-3 0
-4.49727823308041E-3 0
2.3568420756711625E-3 0
-2.4733776621389224E-3 0
-5.348283247208112E-3 0
2.1086087998620174E-3 0
-1.1249418942235715E-2 0
-8.070246128609411E-4 0
8.868144865760633E-3 0
1.345428965937065E-3 0
-2.537717954800795E-3 0
-7.03030338103857E-4 0
4.94725925231148E-4 0
4.2285752666757593E-4 0
-7.40696414955267E-4 0
-2.6721269768629377E-3 0
1.3364083442925128E-3 0
8.700037394139444E-3 0
-5.166657692425794E-4 0
-1.1545287535178179E-2 0
2.692403119628577E-3 0
-5.833432358781996E-3 0
-2.054051561339512E-3 0
2.3924240603256843E-3 0
6.931004002382147E-4 0
-2.98325158727402E-3 0
4.851616667836037E-1 0
-3.0296319218902916E-3 0
4.1475915717267863E-4 0
-4.060218765831759E-3 0
9.643311105507631E-4 0
-1.9129366118658556E-3 0
-1.221302201131603E-4 0
4.903991816053232E-3 0
7.156004907817102E-4 0
-2.167931082499626E-3 0
-6.532564658227833E-4 0
3.773102278960094E-4 0
1.510059994917054E-4 0
1.1212566760998277E-4 0
3.5222933259991074E-4 0
-5.261844885424778E-4 0
-2.0160175284899304E-3 0
7.947955686215848E-4 0
4.984713884652698E-3 0
5.496120394133808E-5 0
-1.9367956780618127E-3 0
1.3894928745303743E-3 0
-4.301146310798295E-3 0
3.280565649687462E-3 0
-4.496954055228321E-3 0
4.540544725993949E-3 0
-4.526654879896854E-3 0
2.3194420262659843E-3 0
-2.5224213442144867E-3 0
-5.41262720552599E-3 0
2.0290621286317492E-3 0
-1.132240005285851E-2 0
-8.536290664355057E-4 0
8.934718538121422E-3 0
1.3820126337342317E-3 0
-2.7196884196378232E-3 0
-6.963348654998875E-4 0
3.5952254190019673E-4 0
3.471800037222975E-4 0
-5.813401642592337E-4 0
-2.5149689313766293E-3 0
1.4609143846343522E-3 0
8.692197110046465E-3 0
-3.651417852081942E-4 0
-1.1756503760080443E-2 0
3.054318614127957E-3 0
-6.137343036288332E-3 0
-2.175963453647307E-3 0
-5.422688109382013E-3 0
4.6699928407115295E-4 0
-3.0296319218902986E-3 0
4.851086911604808E-1 0
-3.0868324373030036E-3 0
3.5496595020825545E-4 0
-4.1206559621402555E-3 0
9.06558965972578E-4 0
-1.9510443355364318E-3 0
-1.224799761448698E-4 0
5.010631658481707E-3 0
8.03608442285927E-4 0
-2.254769352188955E-3 0
-6.086312169060965E-4 0
2.1827721430354256E-4 0
-2.1557859931771157E-5 0
1.3264282601155558E-4 0
4.6504695167545263E-4 0
-4.4946745706508706E-4 0
-1.9258936071781052E-3 0
7.812224403987495E-4 0
5.09758858881774E-3 0
-3.7873954345780965E-5 0
-1.7875438416991472E-3 0
1.1934507171360857E-3 0
-3.348709986663974E-3 0
2.3580373978254908E-3 0
-4.525105705328731E-3 0
4.5051151579210925E-3 0
-4.5726903741621664E-3 0
2.255962606443072E-3 0
-2.6132371692656796E-3 0
-5.5414874239313695E-3 0
1.85017552340683E-3 0
-1.1558362007303709E-2 0
-9.989127974913256E-4 0
8.79040443247541E-3 0
1.4000468412016674E-3 0
-2.5580848011947234E-3 0
-5.361489135086077E-4 0
7.015522676625422E-4 0
8.011050034774606E-4 0
-3.765518752405039E-4 0
-2.4115108684543E-3 0
1.4809115154673794E-3 0
8.69270530886623E-3 0
-2.866197996316111E-4 0
-1.194528060439706E-2 0
3.1627668065370884E-3 0
-6.061499633802863E-3 0
1.4657108737616072E-3 0
-4.006058997554463E-3 0
4.1475915717271034E-4 0
-3.0868324373029984E-3 0
4.85046633446438E-1 0
-3.156408850611725E-3 0
2.7287229960755037E-4 0
-4.220308820724192E-3 0
7.92171985162137E-4 0
-2.0717874417803678E-3 0
-1.5762098080825183E-4 0
4.944630082490202E-3 0
7.898648080317621E-4 0
-2.2238085707547515E-3 0
-6.074820285850486E-4 0
3.936490208663124E-4 0
3.065087023935332E-4 0
3.2189863099099203E-4 0
5.806244041667008E-4 0
-4.065843284383733E-4 0
-1.8645204336344408E-3 0
7.227754329906344E-4 0
5.2176994872208515E-3 0
-2.024051792094129E-4 0
-1.7914275757775655E-3 0
-7.336565436755547E-3 0
-2.4707208417058717E-3 0
2.324129378228712E-3 0
-4.56807991593776E-3 0
4.448166464726467E-3 0
-4.651987474319987E-3 0
2.1421696431364306E-3 0
-2.7736449400044424E-3 0
-5.7698920972543265E-3 0
1.5633816232530884E-3 0
-1.1922329330340655E-2 0
-1.227387559767708E-3 0
9.334191635520505E-3 0
1.5625191198141409E-3 0
-2.043283715581401E-3 0
1.3781435438914237E-5 0
9.757031683387738E-4 0
8.691126003695178E-4 0
-4.0868537103238233E-4 0
-2.3645456022218184E-3 0
1.3902572088743247E-3 0
8.809803160856599E-3 0
-3.4826930005009383E-4 0
-1.1822621909892592E-2 0
2.679776411730787E-3 0
-2.5374547577044337E-3 0
1.0142833522973956E-3 0
-4.060218765831765E-3 0
3.5496595020825523E-4 0
-3.1564088506117263E-3 0
4.849582172611162E-1 0
-3.2772801521112446E-3 0
1.0745571387293137E-4 0
-4.437142491045273E-3 0
5.436747946842228E-4 0
-2.321157166931226E-3 0
-3.203699955160196E-4 0
5.194607050239022E-3 0
8.668221886444145E-4 0
-1.8458862124730588E-3 0
-1.5020634592660456E-4 0
7.564395068748678E-4 0
4.836705408876242E-4 0
4.1848213624578654E-4 0
6.150686572456127E-4 0
-3.8402269909850373E-4 0
-1.86350015421066E-3 0
6.533977484211506E-4 0
5.282465004280253E-3 0
-1.960280832601918E-4 0
2.918252530351549E-3 0
-5.343711738464895E-3 0
-2.513011617872878E-3 0
2.2689660370224627E-3 0
-4.640533316437309E-3 0
4.3521064530684E-3 0
-4.780302230973619E-3 0
1.9757688264420855E-3 0
-2.9866872465317473E-3 0
-5.996201425220771E-3 0
1.311171116285807E-3 0
-1.1868146535850202E-2 0
-1.125842728843377E-3 0
9.270878404961984E-3 0
1.6439388025745317E-3 0
-1.9810123902458286E-3 0
-1.6519482163311445E-4 0
8.57933548495115E-4 0
8.128285858664302E-4 0
-5.033581011009903E-4 0
-2.2815773328224882E-3 0
1.1694505419908771E-3 0
9.120142681688927E-3 0
-8.728939455500665E-4 0
-1.1750202706800708E-2 0
-1.2831706471555136E-4 0
-1.8759145576163286E-3 0
9.643311105507552E-4 0
-4.1206559621402555E-3 0
2.728722996075424E-4 0
-3.2772801521112416E-3 0
4.847758665820605E-1 0
-3.5383762072737934E-3 0
-2.34612019462891E-4 0
-4.803690498890494E-3 0
2.467778874183659E-4 0
-2.3166553904924426E-3 0
-2.0567502101749815E-4 0
5.208019872899963E-3 0
1.0493877405786415E-3 0
-1.5116227636495963E-3 0
5.880979629720852E-5 0
9.074078025383869E-4 0
5.454886457231099E-4 0
4.613881207672017E-4 0
5.824266159345714E-4 0
-3.34750389775936E-4 0
-1.990663757386851E-3 0
7.909139808822533E-4 0
5.2291004056621015E-3 0
-1.53169621777194E-2 0
2.115942549172358E-3 0
-5.397153649712562E-3 0
-2.589515302342485E-3 0
2.1706419178700595E-3 0
-4.757050075861115E-3 0
4.216908561789848E-3 0
-4.934506673894523E-3 0
1.7909395034268734E-3 0
-3.1929003657140934E-3 0
-6.331693830205721E-3 0
1.1614484904489265E-3 0
-1.2508480275754566E-2 0
-1.2619595408418004E-3 0
8.93610799878048E-3 0
1.7292111507567413E-3 0
-2.17042256997087E-3 0
-2.9512368832658936E-4 0
7.511631217910581E-4 0
7.625753391902137E-4 0
-5.49914121121147E-4 0
-2.2196485688087786E-3 0
9.457554772884345E-4 0
9.475287691870993E-3 0
-1.1298147746138657E-3 0
6.734867438502242E-3 0
-1.1123616226178179E-4 0
-1.912936611865851E-3 0
9.065589659725751E-4 0
-4.220308820724186E-3 0
1.0745571387291908E-4 0
-3.5383762072738107E-3 0
4.8439367327095945E-1 0
-4.044194741915587E-3 0
-7.788313475490754E-4 0
-5.3188394188008895E-3 0
8.446219263674066E-5 0
-2.418658375666397E-3 0
-2.5640693760782714E-4 0
5.320078114874955E-3 0
1.5962181660034527E-3 0
-1.2123349272846592E-3 0
2.2994711491444958E-4 0
9.608098806898513E-4 0
5.441240332251597E-4 0
4.426435311631477E-4 0
5.161685728557825E-4 0
-3.186346568723015E-4 0
-2.1838829648216512E-3 0
8.784565595264099E-4 0
-1.04369725312342E-3 0
-1.1236620292811297E-2 0
2.05234199071668E-3 0
-5.508850439865815E-3 0
-2.729910527571191E-3 0
2.0291053908006486E-3 0
-4.889849411374848E-3 0
4.094017612677004E-3 0
-5.0580051459237505E-3 0
1.6691522987134992E-3 0
-3.482930154333434E-3 0
-6.460737075125914E-3 0
1.2316532136620575E-3 0
-1.2622871436897696E-2 0
-9.515050353790383E-4 0
9.041351198843042E-3 0
1.4599914299676616E-3 0
-2.3265461762335495E-3 0
-4.2515115506982154E-4 0
7.400331729192391E-4 0
7.033882649499982E-4 0
-4.1225002400181276E-4 0
-2.3841695026092066E-3 0
1.2352451740081736E-3 0
9.376083450808417E-3 0
1.003895738979295E-3 0
4.882398278623211E-3 0
-1.2213022011316364E-4 0
-1.9510443355364327E-3 0
7.921719851621329E-4 0
-4.43714249104526E-3 0
-2.3461201946287585E-4 0
-4.044194741915597E-3 0
4.837021310181384E-1 0
-4.82492206200244E-3 0
-1.547500767486889E-3 0
-5.642790326966722E-3 0
8.235574456603023E-5 0
-2.290580052467672E-3 0
4.869973839043456E-4 0
6.0999639766384514E-3 0
1.966107370619779E-3 0
-1.038352526998418E-3 0
2.3322984105823963E-4 0
9.00437190488078E-4 0
4.876481511777078E-4 0
3.2457808972878366E-4 0
4.4945522998847594E-4 0
-4.997804029723485E-4 0
-2.2079172931032624E-3 0
1.2103578019080907E-2 0
-7.790962206131818E-4 0
-1.1281549943286548E-2 0
1.8842913438840408E-3 0
-5.735147251123781E-3 0
-2.9152309913982786E-3 0
1.9008089425912417E-3 0
-4.97267507564747E-3 0
4.093606772969506E-3 0
-4.9289219278256515E-3 0
2.0511216917195353E-3 0
-2.9994141531542035E-3 0
-6.643302329764296E-3 0
1.2103762686949534E-3 0
-1.2132397068195584E-2 0
-1.4402439180063644E-3 0
8.606536954347785E-3 0
1.252683105146423E-3 0
-2.4012658821690384E-3 0
-4.389649723693121E-4 0
8.470481496887764E-4 0
7.474037017590673E-4 0
-2.7116650406291276E-4 0
-2.7197745048444374E-3 0
1.4117573176302095E-3 0
-2.850998721521551E-3 0
7.120561614903995E-4 0
4.903991816053231E-3 0
-1.2247997614486358E-4 0
-2.0717874417803582E-3 0
5.436747946842201E-4 0
-4.8036904988904994E-3 0
-7.788313475490713E-4 0
-4.824922062002444E-3 0
4.8277923556727076E-1 0
-5.624152452986343E-3 0
-1.760000072285496E-3 0
-5.774981958353899E-3 0
3.84993205113785E-4 0
-1.4075179777976057E-3 0
1.2483395502007986E-3 0
6.402307820933388E-3 0
1.9644756245775783E-3 0
-1.2119721148518402E-3 0
6.111481930466038E-5 0
7.524220337036872E-4 0
3.142231217673879E-4 0
1.1062692194738526E-4 0
3.889171960792702E-4 0
-5.876802916659963E-4 0
1.7613665837342494E-3 0
8.920113993004129E-3 0
-7.770058258456775E-4 0
-1.1522488161950175E-2 0
1.5557303738667023E-3 0
-5.938090193722315E-3 0
-3.0239494664278436E-3 0
1.826665013054429E-3 0
-4.902011289411139E-3 0
4.366459133049386E-3 0
-4.472981185127324E-3 0
2.1659538022284256E-3 0
-3.3918382965347355E-3 0
-6.7791215950222215E-3 0
8.48243024297009E-4 0
-1.230782973487071E-2 0
-1.4171118184071949E-3 0
8.582219801956614E-3 0
1.2949381748909889E-3 0
-2.324593412025857E-3 0
-2.408561630592804E-4 0
9.963709201342612E-4 0
7.553312170716191E-4 0
-6.52178960186716E-4 0
-2.8484785451612354E-3 0
-7.099865177574292E-4 0
-2.1753902029086414E-3 0
7.156004907817044E-4 0
5.010631658481696E-3 0
-1.5762098080825295E-4 0
-2.321157166931217E-3 0
2.46777887418369E-4 0
-5.318839418800895E-3 0
-1.547500767486899E-3 0
-5.624152452986333E-3 0
4.817041103671256E-1 0
-6.20571994330328E-3 0
-1.7795446995303979E-3 0
-5.623430076065231E-3 0
1.4245387974232311E-3 0
-3.4335583067279975E-4 0
1.245343422735169E-3 0
6.105825894610212E-3 0
1.5888124839878138E-3 0
-1.503747123180214E-3 0
-1.5917342268259628E-4 0
4.0462736744155116E-4 0
-3.1961202676689025E-5 0
1.1681472067811988E-4 0
4.702270390690094E-4 0
-3.5188597531679647E-3 0
1.4044226503148298E-3 0
9.080637564129895E-3 0
-9.113118977387538E-4 0
-1.2033512991559822E-2 0
1.2768861774678933E-3 0
-6.080673236248745E-3 0
-3.3254494737639424E-3 0
1.9153094085140375E-3 0
-4.726045811665496E-3 0
4.450351886834326E-3 0
-4.4591495607706234E-3 0
1.9602217842177123E-3 0
-3.9132736250945144E-3 0
-6.883784491824931E-3 0
1.0021594832543036E-3 0
-1.20545976909525E-2 0
-1.3058636088677856E-3 0
8.887152084480132E-3 0
1.473689572322505E-3 0
-1.945905736432381E-3 0
1.3392593154424025E-4 0
5.868573468190547E-4 0
2.4392625561146558E-4 0
-8.765946620527738E-4 0
5.576595352108002E-4 0
-6.34460576263484E-4 0
-2.1679310824996275E-3 0
8.036084422859294E-4 0
4.944630082490202E-3 0
-3.203699955160316E-4 0
-2.316655390492443E-3 0
8.446219263675035E-5 0
-5.642790326966715E-3 0
-1.7600000722854982E-3 0
-6.205719943303254E-3 0
4.816744944541373E-1 0
-6.330170126750666E-3 0
-2.053164703342456E-3 0
-4.734323686168064E-3 0
1.4229597182537515E-3 0
-1.4030501896371008E-3 0
4.7907881765153315E-4 0
5.330890370331041E-3 0
1.0372839603300372E-3 0
-1.8341386477893603E-3 0
-6.185630647564673E-4 0
2.3018686478561726E-4 0
1.3968086597602246E-4 0
2.3558121127700257E-4 0
-8.96605180524164E-4 0
-2.5346227783009895E-3 0
1.4964565621700223E-3 0
8.950602688398906E-3 0
-1.2729346048453683E-3 0
-1.1930837742944055E-2 0
1.3328046160300902E-3 0
-6.548771955354362E-3 0
-3.4298946921003043E-3 0
1.6084783348248063E-3 0
-5.31936620419388E-3 0
4.093482765264044E-3 0
-5.347035338470904E-3 0
1.2418167854638764E-3 0
-3.628881664262312E-3 0
-6.0267630768331545E-3 0
1.413208544367434E-3 0
-1.171381035006462E-2 0
-8.494446274049001E-4 0
8.75223072907705E-3 0
1.7161624417203973E-3 0
-2.0066008190658476E-3 0
-6.885404208763059E-4 0
2.4224138293963923E-4 0
4.443092243277383E-4 0
4.054801331075123E-4 0
3.77817577143799E-4 0
-6.532564658227829E-4 0
-2.2547693521889544E-3 0
7.898648080317596E-4 0
5.19460705023902E-3 0
-2.0567502101750192E-4 0
-2.4186583756663966E-3 0
8.235574456603154E-5 0
-5.774981958353903E-3 0
-1.7795446995303994E-3 0
-6.3301701267506685E-3 0
4.794983743121345E-1 0
-7.155379777916932E-3 0
-2.0534922318475317E-3 0
-5.62194287611573E-3 0
3.813343887561115E-4 0
-2.28385011157762E-3 0
-2.665303638285441E-4 0
5.220260252138183E-3 0
8.5615567202232E-4 0
-2.2192994726468944E-3 0
-6.126829450855295E-4 0
3.896653755740786E-4 0
1.6754939719068618E-4 0
6.605345856567273E-4 0
-7.273391449216202E-4 0
-2.6989589071697477E-3 0
1.4974982001731223E-3 0
9.381527324385687E-3 0
-1.1353991002002624E-3 0
-1.248910324822504E-2 0
1.069726858072722E-3 0
-6.950692782398197E-3 0
-3.7387064477496694E-3 0
1.2030064409180577E-3 0
-5.883596749858491E-3 0
4.107780029465493E-3 0
-6.076181800425038E-3 0
1.7764218719441356E-3 0
-3.1471752494531785E-3 0
-6.453430526454864E-3 0
1.553403907644086E-3 0
-1.2507205595872197E-2 0
-1.2342414817821715E-3 0
9.241611352346676E-3 0
1.5479665234811413E-3 0
-2.691491352753234E-3 0
-6.835264664903672E-4 0
5.326023579304845E-4 0
4.0548013310751964E-4 0
1.6744506469196083E-4 0
3.77310227896009E-4 0
-6.086312169060988E-4 0
-2.223808570754758E-3 0
8.668221886444113E-4 0
5.208019872899966E-3 0
-2.56406937607826E-4 0
-2.290580052467675E-3 0
3.8499320511378845E-4 0
-5.623430076065236E-3 0
-2.0531647033424573E-3 0
-7.155379777916933E-3 0
4.7949837431213443E-1 0
-6.330313007386944E-3 0
-1.7788959252351638E-3 0
-5.77631545710478E-3 0
8.352243079578041E-5 0
-2.4172795700736203E-3 0
-2.124369917663319E-4 0
5.205457601629423E-3 0
7.852199329178859E-4 0
-2.266796750875518E-3 0
-6.326739960627536E-4 0
3.880124321451158E-4 0
6.605345856567359E-4 0
5.190347320489111E-4 0
-7.170643779679649E-4 0
-2.6555361601661815E-3 0
1.5151834309489677E-3 0
9.280434776318852E-3 0
-1.2813365683713516E-3 0
-1.2460945081308353E-2 0
1.517766721328858E-3 0
-6.432253443807304E-3 0
-3.1560582817948737E-3 0
1.7783781968514665E-3 0
-6.076181800425042E-3 0
4.107780029465506E-3 0
-5.880408427911448E-3 0
1.1885293124691174E-3 0
-3.7037688721887306E-3 0
-7.011630270813669E-3 0
1.1539606154499745E-3 0
-1.2581724932855497E-2 0
-1.0601322975148755E-3 0
9.34659012287816E-3 0
1.530185903800222E-3 0
-2.77797000571136E-3 0
-7.122173500511378E-4 0
5.564061802717232E-4 0
2.1881121445724029E-4 0
1.5100599949171038E-4 0
2.182772143035445E-4 0
-6.074820285850492E-4 0
-1.8458862124730608E-3 0
1.0493877405786454E-3 0
5.320078114874954E-3 0
4.869973839043307E-4 0
-1.407517977797621E-3 0
1.4245387974231867E-3 0
-4.7343236861680975E-3 0
-2.0534922318475326E-3 0
-6.3303130073869415E-3 0
4.816760135820595E-1 0
-6.2102844291596964E-3 0
-1.7509587893874948E-3 0
-5.655653904562918E-3 0
9.682597205597835E-5 0
-2.320118519925973E-3 0
-3.342923020407121E-4 0
4.97521225457366E-3 0
7.983893418377631E-4 0
-2.2202604091815835E-3 0
-6.267923876172155E-4 0
-8.912870344056067E-4 0
4.1976265217901556E-4 0
2.4508044859711866E-4 0
-6.963463255554777E-4 0
-1.997740245828561E-3 0
1.7066275870864604E-3 0
8.764755508735378E-3 0
-8.634673924798049E-4 0
-1.1701916700613189E-2 0
1.4057173284788742E-3 0
-6.023576476081624E-3 0
-3.6288890174364166E-3 0
1.2398603604587327E-3 0
-5.343846916426064E-3 0
4.08617674137534E-3 0
-5.2996687079624755E-3 0
1.566354278701827E-3 0
-3.356634977642685E-3 0
-6.657776997440285E-3 0
1.471386661279182E-3 0
-1.206650038535199E-2 0
-1.2055535251496675E-3 0
9.001837425020667E-3 0
1.3813960769426586E-3 0
-2.6135059639723706E-3 0
-7.042954424060933E-4 0
4.4553934306150694E-4 0
1.1212566760997926E-4 0
-2.155785993177353E-5 0
3.9364902086631094E-4 0
-1.5020634592660518E-4 0
-1.5116227636495915E-3 0
1.5962181660034618E-3 0
6.099963976638464E-3 0
1.248339550200804E-3 0
-3.4335583067280094E-4 0
1.4229597182537422E-3 0
-5.621942876115727E-3 0
-1.7788959252351597E-3 0
-6.210284429159702E-3 0
4.817142411000195E-1 0
-5.6408800407921605E-3 0
-1.5253137062236747E-3 0
-5.342184913860388E-3 0
2.620476387080607E-4 0
-2.3098408469821364E-3 0
-2.2230392587021513E-4 0
5.130189821635582E-3 0
6.010826724548278E-4 0
-2.249910592085961E-3 0
-3.5430077174411524E-3 0
-7.996914706674527E-4 0
2.0125264497582418E-4 0
6.139475361418113E-4 0
1.2498133104022193E-4 0
-1.9467164512748155E-3 0
1.478174049018094E-3 0
8.883857973887948E-3 0
-1.3044308566942911E-3 0
-1.2054759826522645E-2 0
1.0021986587307218E-3 0
-6.886946331894883E-3 0
-3.904390138241389E-3 0
1.9457442012573419E-3 0
-4.439494080580715E-3 0
4.422296389613384E-3 0
-4.68452373688242E-3 0
1.8518935829584164E-3 0
-3.222557175230774E-3 0
-6.2475095352774795E-3 0
1.5147370519087299E-3 0
-1.2297176227245165E-2 0
-8.206980757343566E-4 0
9.274176018939633E-3 0
1.3254562326046441E-3 0
-2.8661640082916448E-3 0
-5.349163393472385E-4 0
3.522293325999051E-4 0
1.326428260115563E-4 0
3.065087023935329E-4 0
7.564395068748707E-4 0
5.880979629720521E-5 0
-1.2123349272846631E-3 0
1.9661073706197835E-3 0
6.402307820933407E-3 0
1.245343422735179E-3 0
-1.4030501896371028E-3 0
3.813343887561064E-4 0
-5.776315457104776E-3 0
-1.750958789387494E-3 0
-5.640880040792148E-3 0
4.8280224389680015E-1 0
-4.851525023342052E-3 0
-7.499939375358638E-4 0
-4.835724401304599E-3 0
5.728941669332032E-4 0
-2.0699032821954026E-3 0
-2.396279353473419E-4 0
5.135193185003063E-3 0
6.246340223758293E-4 0
1.8216464964657287E-3 0
-2.7240927554362947E-3 0
-6.579432147037279E-4 0
7.652403970206485E-4 0
9.833150448781158E-4 0
-2.233327217958366E-4 0
-2.3393334811479282E-3 0
1.3025091238564317E-3 0
8.579624465396259E-3 0
-1.417124205040765E-3 0
-1.2307756084423525E-2 0
8.556508613764498E-4 0
-6.8003019291383885E-3 0
-3.356897469505193E-3 0
2.1239107984986493E-3 0
-4.431360061726637E-3 0
4.333256739121056E-3 0
-4.878371187970261E-3 0
1.787310005875256E-3 0
-2.908852382456743E-3 0
-6.211942409212451E-3 0
2.054506087595459E-3 0
-1.2168335890388885E-2 0
-2.517233738867297E-4 0
9.179202872723074E-3 0
1.0374912277594604E-3 0
-2.087309888930549E-3 0
-5.261844885424818E-4 0
4.6504695167544997E-4 0
3.2189863099099403E-4 0
4.836705408876252E-4 0
9.074078025383853E-4 0
2.299471149144485E-4 0
-1.0383525269984201E-3 0
1.9644756245775848E-3 0
6.105825894610217E-3 0
4.790788176515321E-4 0
-2.2838501115776152E-3 0
8.35224307957782E-5 0
-5.655653904562915E-3 0
-1.5253137062236773E-3 0
-4.851525023342069E-3 0
4.837265563196985E-1 0
-4.065556138798528E-3 0
-2.0158268469547453E-4 0
-4.5107304885646056E-3 0
9.225044814963492E-4 0
-2.087525094583268E-3 0
-5.470522867792094E-5 0
5.116462403358373E-3 0
1.1988435139608686E-2 0
1.3084739154690865E-3 0
-2.555854659599251E-3 0
-4.106837686533593E-4 0
8.34437398688609E-4 0
7.865244177195482E-4 0
-4.050636227476768E-4 0
-2.411929957640449E-3 0
1.2526861967078137E-3 0
8.609150247971162E-3 0
-1.441516214815248E-3 0
-1.2144139304216083E-2 0
1.246029882958834E-3 0
-6.704256246128421E-3 0
-2.9263061950406143E-3 0
1.987546967855685E-3 0
-4.905303486029913E-3 0
4.136313981291605E-3 0
-5.067700814963223E-3 0
1.9746484152145093E-3 0
-2.8381112423420327E-3 0
-6.122289650235226E-3 0
2.759460418958184E-3 0
-1.2422417972660029E-2 0
-1.9228254350268367E-4 0
6.665309455805818E-3 0
7.683199202158966E-4 0
-2.016017528489929E-3 0
-4.494674570650864E-4 0
5.806244041666979E-4 0
4.184821362457887E-4 0
5.454886457231125E-4 0
9.608098806898536E-4 0
2.3322984105823784E-4 0
-1.2119721148518405E-3 0
1.5888124839878149E-3 0
5.3308903703310415E-3 0
-2.665303638285457E-4 0
-2.417279570073619E-3 0
9.682597205597775E-5 0
-5.342184913860389E-3 0
-7.499939375358697E-4 0
-4.065556138798534E-3 0
4.8439457599415E-1 0
-3.5306549878396424E-3 0
1.4475242533408485E-4 0
-4.37037935594733E-3 0
1.2157403997278993E-3 0
-2.290256739266556E-3 0
1.0879313469596846E-4 0
-8.552240301710317E-4 0
8.687247721881019E-3 0
1.43768547418742E-3 0
-2.4441254909275865E-3 0
-4.525199868671485E-4 0
7.594243236323607E-4 0
7.066065148236843E-4 0
-4.250743379317461E-4 0
-2.3159400458404662E-3 0
1.4524287458166365E-3 0
9.044433554832521E-3 0
-9.376903848204148E-4 0
-1.2669172815346307E-2 0
1.315927834924087E-3 0
-6.569528476357539E-3 0
-3.379851194493258E-3 0
1.6298498533711845E-3 0
-5.153080376569187E-3 0
4.345697967745843E-3 0
-5.238517448670897E-3 0
2.35237705512834E-3 0
-2.858851430789517E-3 0
-5.820826117492577E-3 0
2.7572426566319108E-3 0
-1.233117437352486E-2 0
8.469480448873312E-6 0
4.901125010739169E-3 0
7.947955686215829E-4 0
-1.9258936071781068E-3 0
-4.065843284383718E-4 0
6.150686572456147E-4 0
4.613881207671995E-4 0
5.441240332251581E-4 0
9.004371904880793E-4 0
6.111481930466143E-5 0
-1.5037471231802127E-3 0
1.0372839603300331E-3 0
5.220260252138178E-3 0
-2.1243699176633207E-4 0
-2.3201185199259733E-3 0
2.6204763870806133E-4 0
-4.835724401304605E-3 0
-2.015826846954894E-4 0
-3.5306549878395908E-3 0
4.847056642341255E-1 0
-3.188322457469987E-3 0
2.615080483678685E-4 0
-4.3181735616522905E-3 0
1.344052804079404E-3 0
-2.2674684820998803E-3 0
-1.5590355640751842E-2 0
-5.240110367216096E-4 0
8.676661669824313E-3 0
1.4571637489404076E-3 0
-2.3928947683873308E-3 0
-5.265271716378034E-4 0
7.62453636811136E-4 0
7.845979379788553E-4 0
-3.2908963088658415E-4 0
-2.1556298764748324E-3 0
1.7248428375385653E-3 0
8.923737569804283E-3 0
-1.2148282291279972E-3 0
-1.2601138185509654E-2 0
1.2998834520718833E-3 0
-6.498679290039271E-3 0
-3.0777759731154463E-3 0
1.864702649900194E-3 0
-5.282981635476308E-3 0
4.80477206772743E-3 0
-5.482143683264211E-3 0
2.8804311810371286E-3 0
-3.044925401052302E-3 0
-5.342535025447661E-3 0
2.39082607424367E-3 0
-2.792966614322987E-3 0
6.761844921096407E-5 0
4.9847138846526974E-3 0
7.812224403987492E-4 0
-1.8645204336344358E-3 0
-3.840226990984981E-4 0
5.824266159345686E-4 0
4.4264353116314596E-4 0
4.876481511777098E-4 0
7.524220337036884E-4 0
-1.5917342268259688E-4 0
-1.834138647789362E-3 0
8.561556720223197E-4 0
5.205457601629423E-3 0
-3.342923020407099E-4 0
-2.3098408469821325E-3 0
5.728941669331912E-4 0
-4.510730488564597E-3 0
1.4475242533409078E-4 0
-3.1883224574699907E-3 0
4.847304790882739E-1 0
-2.8681183660753434E-3 0
2.2941266815492477E-4 0
-4.2419953451118585E-3 0
1.3618595740547098E-3 0
3.2574229711357745E-3 0
-1.1549846182646074E-2 0
-3.744866355942961E-4 0
8.67972691524295E-3 0
1.3786707699174879E-3 0
-2.2816668912848874E-3 0
-5.265362721864013E-4 0
7.568159123880115E-4 0
9.184825329573096E-4 0
-1.8275980056695388E-4 0
-1.9800667868312507E-3 0
1.653732195471004E-3 0
9.232195922027668E-3 0
-1.0507168671958628E-3 0
-1.2004072550093914E-2 0
1.548909049831617E-3 0
-6.27006531398606E-3 0
-2.909498718560583E-3 0
2.2988819931439594E-3 0
-5.5054386913287595E-3 0
5.392147435792177E-3 0
-5.855349117659562E-3 0
3.4399625593935237E-3 0
-3.325305867155204E-3 0
-5.4320939029949555E-3 0
1.8951956563619352E-3 0
-1.9895897440558585E-3 0
5.4961203941340064E-5 0
5.09758858881774E-3 0
7.227754329906392E-4 0
-1.8635001542106585E-3 0
-3.347503897759353E-4 0
5.161685728557821E-4 0
3.245780897287804E-4 0
3.142231217673877E-4 0
4.0462736744154937E-4 0
-6.185630647564653E-4 0
-2.2192994726468926E-3 0
7.852199329178864E-4 0
4.975212254573657E-3 0
-2.2230392587021237E-4 0
-2.0699032821954078E-3 0
9.225044814963494E-4 0
-4.370379355947331E-3 0
2.615080483678774E-4 0
-2.8681183660753643E-3 0
4.844481666609221E-1 0
-2.4191996164273245E-3 0
9.865847409044286E-5 0
-4.38970942215215E-3 0
-7.662103737842087E-3 0
2.689734058581795E-3 0
-1.176124940891231E-2 0
-2.912496558557679E-4 0
8.809928382011596E-3 0
1.1809907110916752E-3 0
-2.191284206693838E-3 0
-3.685779200147472E-4 0
7.82231644517076E-4 0
9.888244074595055E-4 0
2.2219787661851587E-5 0
-2.0533463950563663E-3 0
1.594632735412052E-3 0
9.299923910947246E-3 0
-1.1588115481919671E-3 0
-1.2185453741330452E-2 0
2.0620129679043034E-3 0
-6.1570474972568075E-3 0
-2.902624355174783E-3 0
2.8521905800322073E-3 0
-5.867022015762174E-3 0
6.029984244000703E-3 0
-6.322062356707017E-3 0
3.819839944957059E-3 0
-3.195471603971595E-3 0
-6.067136396708079E-3 0
1.4698515301052198E-3 0
-1.9367956780618142E-3 0
-3.787395434577891E-5 0
5.217699487220852E-3 0
6.533977484211537E-4 0
-1.99066375738685E-3 0
-3.186346568723031E-4 0
4.4945522998847897E-4 0
1.1062692194738726E-4 0
-3.1961202676690014E-5 0
2.3018686478561688E-4 0
-6.126829450855312E-4 0
-2.2667967508755195E-3 0
7.983893418377587E-4 0
5.130189821635585E-3 0
-2.3962793534734817E-4 0
-2.087525094583268E-3 0
1.215740399727893E-3 0
-4.318173561652264E-3 0
2.2941266815488395E-4 0
-2.419199616427302E-3 0
4.8390688612907723E-1 0
-1.8645932324116636E-3 0
2.814363295730772E-4 0
-3.251199968686117E-3 0
-5.834619987296801E-3 0
3.052807784897776E-3 0
-1.194528064072065E-2 0
-3.437788534715328E-4 0
9.13305192171198E-3 0
9.695255581942672E-4 0
-2.3515571498127037E-3 0
-2.3737020191989992E-4 0
7.905041405531828E-4 0
6.742328780884087E-4 0
-5.268072152052367E-4 0
-2.5926674409845977E-3 0
1.4313619920315868E-3 0
8.840105078668508E-3 0
-9.080775088901569E-4 0
-1.2203499406515607E-2 0
2.7256477538416305E-3 0
-5.853415721405793E-3 0
-3.0687217672144065E-3 0
3.427078565594271E-3 0
-6.326572067677948E-3 0
6.615599675239096E-3 0
-6.506374171357751E-3 0
3.47173582283382E-3 0
1.3797793991479296E-3 0
-4.386182281286983E-3 0
1.3894928745303767E-3 0
-1.7875438416991498E-3 0
-2.0240517920940812E-4 0
5.282465004280258E-3 0
7.909139808822547E-4 0
-2.183882964821656E-3 0
-4.997804029723416E-4 0
3.889171960792713E-4 0
1.1681472067812121E-4 0
1.396808659760237E-4 0
3.896653755740772E-4 0
-6.326739960627585E-4 0
-2.2202604091815805E-3 0
6.010826724548289E-4 0
5.135193185003064E-3 0
-5.4705228677927626E-5 0
-2.2902567392665565E-3 0
1.3440528040794201E-3 0
-4.241995345111878E-3 0
9.865847409044658E-5 0
-1.8645932324116634E-3 0
4.8349125661329995E-1 0
-2.550621358439865E-3 0
3.4989165414715854E-3 0
-2.054376495986873E-3 0
-6.1373541470282015E-3 0
3.164340726095405E-3 0
-1.1817824154700889E-2 0
-8.633803694985305E-4 0
9.490789900879183E-3 0
1.258643029471215E-3 0
-2.67835894277235E-3 0
-5.741287344994849E-4 0
3.918304725691497E-4 0
3.562657789593585E-4 0
-6.642707958372119E-4 0
-2.7972256763645034E-3 0
1.2673735335621984E-3 0
9.126263389752306E-3 0
-3.297532156382192E-4 0
-1.2463869501140527E-2 0
2.7338962712686217E-3 0
-5.358099808310301E-3 0
-3.334753712349E-3 0
3.8149829090071475E-3 0
-6.507909040974062E-3 0
6.592827461838319E-3 0
-5.936878317907003E-3 0
-4.60281653394192E-3 0
7.714870557930488E-4 0
-4.301146310798296E-3 0
1.193450717136089E-3 0
-1.7914275757775662E-3 0
-1.9602808326019228E-4 0
5.229100405662103E-3 0
8.78456559526407E-4 0
-2.2079172931032645E-3 0
-5.87680291665993E-4 0
4.702270390690119E-4 0
2.3558121127700013E-4 0
1.675493971906858E-4 0
3.880124321451183E-4 0
-6.267923876172132E-4 0
-2.249910592085959E-3 0
6.246340223758313E-4 0
5.11646240335838E-3 0
1.0879313469596887E-4 0
-2.267468482099879E-3 0
1.3618595740547026E-3 0
-4.389709422152145E-3 0
2.8143632957308115E-4 0
-2.550621358439877E-3 0
4.8331437356816664E-1 0
-6.6617261853384735E-3 0
2.3924227329338854E-3 0
-2.1756227466383474E-3 0
-6.060257560209196E-3 0
2.6825251192794577E-3 0
-1.1745437178749162E-2 0
-1.122116181032369E-3 0
9.389497071187365E-3 0
1.4408689476526953E-3 0
-2.7945604841881737E-3 0
-8.158762567527773E-4 0
4.4734721064934303E-4 0
5.076331463023084E-4 0
-6.87248138422968E-4 0
-2.616543650554733E-3 0
1.264736466286605E-3 0
9.125288136350548E-3 0
-2.214001722476875E-4 0
-1.2344579060578944E-2 0
2.3831160049916558E-3 0
-5.436846620983078E-3 0
-3.1982324620496026E-3 0
3.4705012936895496E-3 0
-5.937219623761244E-3 0
5.810270373628996E-3 0
8.596883211651756E-3 0
-6.148988343732275E-3 0
3.280565649687469E-3 0
-3.348709986663974E-3 0
-7.336565436755546E-3 0
2.918252530351548E-3 0
-1.5316962177719391E-2 0
-1.043697253123423E-3 0
1.2103578019080902E-2 0
1.761366583734252E-3 0
-3.518859753167967E-3 0
-8.966051805241651E-4 0
6.605345856567267E-4 0
6.605345856567355E-4 0
-8.912870344056112E-4 0
-3.543007717441152E-3 0
1.8216464964657324E-3 0
1.1988435139608674E-2 0
-8.552240301710226E-4 0
-1.5590355640751842E-2 0
3.257422971135774E-3 0
-7.662103737842086E-3 0
-3.2511999686861168E-3 0
3.4989165414715854E-3 0
-6.661726185338469E-3 0
6.559681737112809E-1 0
4.760082520689574E-3 0
-1.3642360291744838E-2 0
3.4693754058651154E-2 0
-1.675616490827903E-2 0
1.6559760498380517E-2 0
4.964501492641955E-3 0
-3.953659850646948E-2 0
-2.1425860255136066E-3 0
1.7393490647545213E-2 0
1.9507010415158387E-3 0
-3.7621411558119043E-3 0
-1.5131874737970372E-3 0
-1.5131874737970364E-3 0
-3.752555698504312E-3 0
1.907176611113724E-3 0
1.7509053420230295E-2 0
-2.3966969047491803E-3 0
-3.901581067968155E-2 0
3.95138510948929E-3 0
1.8427757764188445E-2 0
-1.985097390372145E-2 0
3.917848701377952E-2 0
-1.8235243938487192E-2 0
7.125518697165847E-3 0
-6.148988343731743E-3 0
4.563092786496525E-3 0
-4.496954055228309E-3 0
2.358037397825477E-3 0
-2.4707208417058687E-3 0
-5.343711738464897E-3 0
2.115942549172359E-3 0
-1.1236620292811299E-2 0
-7.790962206131809E-4 0
8.92011399300413E-3 0
1.4044226503148324E-3 0
-2.5346227783009873E-3 0
-7.273391449216225E-4 0
5.190347320489128E-4 0
4.197626521790165E-4 0
-7.996914706674519E-4 0
-2.724092755436291E-3 0
1.3084739154690824E-3 0
8.687247721881019E-3 0
-5.24011036721605E-4 0
-1.1549846182646071E-2 0
2.689734058581789E-3 0
-5.834619987296804E-3 0
-2.0543764959868693E-3 0
2.392422732933887E-3 0
4.7600825206895805E-3 0
5.828646745921724E-1 0
3.565416812381386E-3 0
-9.791460501275225E-3 0
2.5515952140368205E-2 0
-1.1975030501598502E-2 0
1.2141360237173627E-2 0
3.652160742738702E-3 0
-2.870224684784541E-2 0
-1.516674858563095E-3 0
1.3045292197451793E-2 0
1.8322805230131629E-3 0
-2.7634564448847767E-3 0
-3.583258258655792E-4 0
-5.869026106715309E-4 0
-2.9074216802657264E-3 0
1.5170914707430692E-3 0
1.2763376235723321E-2 0
-1.7708000479056789E-3 0
-2.858472419492798E-2 0
2.565254619923782E-3 0
1.3369327272289826E-2 0
-1.5186575205901618E-2 0
2.8711188702606104E-2 0
-1.2282523651989384E-2 0
3.280565649686559E-3 0
-4.497278233080391E-3 0
4.540544725993932E-3 0
-4.52510570532871E-3 0
2.324129378228706E-3 0
-2.5130116178728725E-3 0
-5.397153649712566E-3 0
2.052341990716695E-3 0
-1.1281549943286546E-2 0
-7.770058258456746E-4 0
9.0806375641299E-3 0
1.4964565621700203E-3 0
-2.698958907169748E-3 0
-7.170643779679696E-4 0
2.4508044859712283E-4 0
2.0125264497582372E-4 0
-6.579432147037177E-4 0
-2.5558546595992556E-3 0
1.4376854741874204E-3 0
8.676661669824316E-3 0
-3.7448663559429084E-4 0
-1.1761249408912312E-2 0
3.052807784897773E-3 0
-6.137354147028204E-3 0
-2.1756227466383474E-3 0
-1.364236029174483E-2 0
3.565416812381451E-3 0
5.830185583690126E-1 0
3.757878584316692E-3 0
-9.574327851531759E-3 0
2.5737923423628864E-2 0
-1.1776700450655021E-2 0
1.2281180690082574E-2 0
3.6898880723077285E-3 0
-2.8791351778661125E-2 0
-1.4872393307711674E-3 0
1.2993746916034912E-2 0
1.907672346523457E-3 0
-2.5583798021878348E-3 0
-2.7579686600473426E-4 0
-2.1110094666407337E-4 0
-2.551238737979762E-3 0
1.5152475014527664E-3 0
1.241153470733994E-2 0
-1.7958190683552927E-3 0
-2.9064497360495982E-2 0
2.7723576845871236E-3 0
1.3048622161181534E-2 0
-1.4512535873236563E-2 0
2.7771099671719708E-2 0
-3.3487099866631787E-3 0
2.3568420756711703E-3 0
-4.5266548798968236E-3 0
4.5051151579211315E-3 0
-4.56807991593777E-3 0
2.2689660370224666E-3 0
-2.5895153023424897E-3 0
-5.508850439865804E-3 0
1.8842913438840338E-3 0
-1.1522488161950171E-2 0
-9.113118977387421E-4 0
8.950602688398902E-3 0
1.4974982001731212E-3 0
-2.6555361601661837E-3 0
-6.963463255554751E-4 0
6.139475361418157E-4 0
7.652403970206516E-4 0
-4.106837686533611E-4 0
-2.444125490927585E-3 0
1.4571637489404121E-3 0
8.679726915242948E-3 0
-2.912496558557714E-4 0
-1.194528064072065E-2 0
3.1643407260954037E-3 0
-6.060257560209191E-3 0
3.4693754058651154E-2 0
-9.791460501275237E-3 0
3.7578785843167257E-3 0
5.832426331855083E-1 0
4.002410258389741E-3 0
-9.320792798509196E-3 0
2.5987495747437986E-2 0
-1.1544820007531773E-2 0
1.2440772115610598E-2 0
3.730544955544983E-3 0
-2.9123733271630828E-2 0
-1.7844925343213885E-3 0
1.3666670941203133E-2 0
1.8177608319698854E-3 0
-2.014692829605253E-3 0
2.630464898163748E-4 0
-2.923518378103992E-4 0
-3.0528025060166625E-3 0
1.2384649623291613E-3 0
1.19200689775054E-2 0
-1.5908464582397907E-3 0
-2.9827511686830923E-2 0
3.4966426901216797E-3 0
1.1907529246740682E-2 0
-1.3254681136687544E-2 0
-7.336565436755944E-3 0
-2.4733776621389367E-3 0
2.3194420262659552E-3 0
-4.572690374162205E-3 0
4.448166464726399E-3 0
-4.640533316437299E-3 0
2.170641917870048E-3 0
-2.729910527571181E-3 0
-5.735147251123785E-3 0
1.5557303738667038E-3 0
-1.2033512991559824E-2 0
-1.2729346048453757E-3 0
9.38152732438569E-3 0
1.515183430948976E-3 0
-1.9977402458285633E-3 0
1.2498133104022635E-4 0
9.83315044878113E-4 0
8.344373986886113E-4 0
-4.5251998686714635E-4 0
-2.39289476838733E-3 0
1.3786707699174794E-3 0
8.809928382011592E-3 0
-3.4377885347153193E-4 0
-1.1817824154700896E-2 0
2.6825251192794603E-3 0
-1.6756164908279032E-2 0
2.551595214036821E-2 0
-9.574327851531797E-3 0
4.0024102583897355E-3 0
5.835123256895431E-1 0
4.3015395017915225E-3 0
-8.981357922511675E-3 0
2.6379207725254226E-2 0
-1.1110812497935859E-2 0
1.290791761956917E-2 0
3.903875277583767E-3 0
-2.874482799207181E-2 0
-1.5662600516058124E-3 0
1.3388675132087908E-2 0
1.5950033690398E-3 0
-2.788199628467013E-3 0
-9.95126455669304E-4 0
-1.005520432456476E-3 0
-3.5531106470003E-3 0
1.077247376921445E-3 0
1.1535286072117413E-2 0
-1.1386263084899367E-3 0
-3.0709844048981236E-2 0
4.703280360075842E-3 0
1.1745276657950957E-2 0
2.9182525303515995E-3 0
-5.348283247208109E-3 0
-2.5224213442144876E-3 0
2.2559626064430735E-3 0
-4.651987474319979E-3 0
4.352106453068405E-3 0
-4.7570500758611235E-3 0
2.029105390800641E-3 0
-2.9152309913982755E-3 0
-5.938090193722319E-3 0
1.276886177467896E-3 0
-1.1930837742944053E-2 0
-1.1353991002002618E-3 0
9.28043477631885E-3 0
1.706627587086455E-3 0
-1.9467164512748205E-3 0
-2.2333272179583927E-4 0
7.865244177195538E-4 0
7.59424323632364E-4 0
-5.265271716378063E-4 0
-2.2816668912848887E-3 0
1.1809907110916734E-3 0
9.133051921711979E-3 0
-8.633803694985261E-4 0
-1.1745437178749162E-2 0
1.655976049838052E-2 0
-1.1975030501598491E-2 0
2.5737923423628892E-2 0
-9.320792798509201E-3 0
4.301539501791499E-3 0
5.838851902331661E-1 0
4.789324588993356E-3 0
-8.34757650390721E-3 0
2.7152162743673384E-2 0
-1.0290177691478972E-2 0
1.362888255077956E-2 0
4.373844048900514E-3 0
-3.0472680751802175E-2 0
-2.2917195711854663E-3 0
1.172313892930292E-2 0
1.9359738562186506E-4 0
-4.004393009276929E-3 0
-1.6339783881936928E-3 0
-1.4356698353215963E-3 0
-3.710711158042958E-3 0
9.525030042377609E-4 0
1.1523474753645527E-2 0
-7.131664422062268E-4 0
-3.110658025645866E-2 0
4.6180401419721896E-3 0
-1.5316962177719244E-2 0
2.108608799862037E-3 0
-5.41262720552598E-3 0
-2.6132371692656623E-3 0
2.1421696431364297E-3 0
-4.780302230973643E-3 0
4.216908561789881E-3 0
-4.889849411374872E-3 0
1.9008089425912485E-3 0
-3.0239494664278457E-3 0
-6.080673236248744E-3 0
1.332804616030093E-3 0
-1.248910324822504E-2 0
-1.2813365683713531E-3 0
8.76475550873538E-3 0
1.4781740490180922E-3 0
-2.3393334811479265E-3 0
-4.050636227476795E-4 0
7.066065148236876E-4 0
7.624536368111384E-4 0
-5.265362721864038E-4 0
-2.191284206693838E-3 0
9.695255581942677E-4 0
9.49078990087919E-3 0
-1.122116181032373E-3 0
4.964501492641953E-3 0
1.2141360237173616E-2 0
-1.1776700450655035E-2 0
2.5987495747437996E-2 0
-8.98135792251167E-3 0
4.789324588993321E-3 0
5.846021521419835E-1 0
5.794248868054079E-3 0
-7.079690532619727E-3 0
2.8473324182812714E-2 0
-9.374421874942638E-3 0
1.3695057725606164E-2 0
4.232906728508058E-3 0
-3.0796200539051757E-2 0
-2.800812916141396E-3 0
1.080881477170381E-2 0
-6.69232829211893E-4 0
-4.7104496572722195E-3 0
-1.9517008472914688E-3 0
-1.6830127776743216E-3 0
-3.500547401612422E-3 0
6.236388333984515E-4 0
1.2271348083464109E-2 0
-1.6331054402689608E-3 0
-3.0678380922736583E-2 0
-1.0436972531235999E-3 0
-1.1249418942235724E-2 0
2.029062128631739E-3 0
-5.541487423931381E-3 0
-2.7736449400044454E-3 0
1.9757688264420894E-3 0
-4.934506673894545E-3 0
4.09401761267699E-3 0
-4.972675075647492E-3 0
1.8266650130544387E-3 0
-3.3254494737639372E-3 0
-6.548771955354359E-3 0
1.0697268580727257E-3 0
-1.246094508130836E-2 0
-8.634673924798004E-4 0
8.883857973887943E-3 0
1.3025091238564421E-3 0
-2.4119299576404467E-3 0
-4.2507433793174937E-4 0
7.845979379788618E-4 0
7.568159123880122E-4 0
-3.68577920014747E-4 0
-2.3515571498127E-3 0
1.2586430294712126E-3 0
9.389497071187363E-3 0
-3.953659850646946E-2 0
3.652160742738715E-3 0
1.2281180690082575E-2 0
-1.1544820007531788E-2 0
2.637920772525423E-2 0
-8.347576503907168E-3 0
5.7942488680541105E-3 0
5.861072470690681E-1 0
7.830168690693735E-3 0
-4.795697450264339E-3 0
3.1008067925831252E-2 0
-7.837289126095203E-3 0
1.4772838892798765E-2 0
4.194204094802328E-3 0
-3.0915806303251147E-2 0
-5.31537947694707E-3 0
9.181288307812679E-3 0
-1.5886576583822986E-3 0
-5.035458061007477E-3 0
-1.9338886995856302E-3 0
-1.6090581684767204E-3 0
-3.110090410821971E-3 0
3.9709011803157E-4 0
1.3428864895063033E-2 0
-2.230818582975554E-3 0
1.210357801908092E-2 0
-8.070246128609378E-4 0
-1.1322400052858516E-2 0
1.8501755234068284E-3 0
-5.7698920972543335E-3 0
-2.9866872465317508E-3 0
1.7909395034268801E-3 0
-5.058005145923743E-3 0
4.093606772969517E-3 0
-4.902011289411133E-3 0
1.915309408514026E-3 0
-3.4298946921002996E-3 0
-6.950692782398206E-3 0
1.5177667213288587E-3 0
-1.1701916700613194E-2 0
-1.3044308566943033E-3 0
8.579624465396266E-3 0
1.2526861967078237E-3 0
-2.31594004584046E-3 0
-3.2908963088658654E-4 0
9.184825329573158E-4 0
7.822316445170811E-4 0
-2.373702019198984E-4 0
-2.678358942772356E-3 0
1.4408689476526956E-3 0
-2.1425860255135983E-3 0
-2.8702246847845413E-2 0
3.6898880723077315E-3 0
1.2440772115610602E-2 0
-1.1110812497935866E-2 0
2.7152162743673353E-2 0
-7.079690532619753E-3 0
7.830168690693763E-3 0
5.890442430817139E-1 0
1.1256439052717518E-2 0
-1.2869043737564537E-3 0
3.228235215174883E-2 0
-8.704605939221689E-3 0
1.4113648597628842E-2 0
1.0619429008326144E-3 0
-3.40105903979243E-2 0
-6.848566267984345E-3 0
8.322705355708556E-3 0
-1.6066122825061178E-3 0
-4.676310791736565E-3 0
-1.6361921373101876E-3 0
-1.070543518455999E-3 0
-2.8633061600004204E-3 0
1.2354549275843739E-3 0
1.3544800484092198E-2 0
1.7613665837343416E-3 0
8.868144865760638E-3 0
-8.536290664354986E-4 0
-1.15583620073037E-2 0
1.5633816232530939E-3 0
-5.996201425220771E-3 0
-3.1929003657140934E-3 0
1.6691522987134998E-3 0
-4.9289219278256455E-3 0
4.366459133049366E-3 0
-4.726045811665492E-3 0
1.6084783348248104E-3 0
-3.7387064477496707E-3 0
-6.432253443807308E-3 0
1.4057173284788816E-3 0
-1.2054759826522656E-2 0
-1.4171242050407698E-3 0
8.609150247971167E-3 0
1.4524287458166374E-3 0
-2.1556298764748277E-3 0
-1.8275980056695306E-4 0
9.888244074595061E-4 0
7.905041405531883E-4 0
-5.741287344994755E-4 0
-2.794560484188172E-3 0
1.7393490647545227E-2 0
-1.516674858563094E-3 0
-2.8791351778661125E-2 0
3.730544955544993E-3 0
1.2907917619569173E-2 0
-1.029017769147896E-2 0
2.8473324182812725E-2 0
-4.7956974502643464E-3 0
1.1256439052717516E-2 0
5.930980070455457E-1 0
1.4370473743326142E-2 0
-1.073565685161629E-3 0
3.296710475681176E-2 0
-9.774022348015885E-3 0
1.0470013969166424E-2 0
-2.0060866642589606E-3 0
-3.5322071244955566E-2 0
-6.835441407122391E-3 0
9.174615657058936E-3 0
-6.778045489618292E-4 0
-3.986542440034602E-3 0
-1.0315533647734245E-3 0
-1.783776423846987E-4 0
-2.748212002366723E-3 0
1.7376283132489786E-3 0
-3.5188597531680284E-3 0
1.3454289659370626E-3 0
8.934718538121415E-3 0
-9.989127974913488E-4 0
-1.1922329330340665E-2 0
1.3111711162858088E-3 0
-6.331693830205725E-3 0
-3.4829301543334345E-3 0
2.05112169171952E-3 0
-4.4729811851273345E-3 0
4.450351886834306E-3 0
-5.319366204193871E-3 0
1.2030064409180548E-3 0
-3.156058281794871E-3 0
-6.023576476081644E-3 0
1.0021986587307077E-3 0
-1.2307756084423542E-2 0
-1.4415162148152558E-3 0
9.044433554832516E-3 0
1.7248428375385568E-3 0
-1.9800667868312494E-3 0
2.221978766185076E-5 0
6.742328780884061E-4 0
3.9183047256914974E-4 0
-8.158762567527779E-4 0
1.9507010415158457E-3 0
1.3045292197451796E-2 0
-1.4872393307711642E-3 0
-2.9123733271630824E-2 0
3.9038752775837735E-3 0
1.3628882550779549E-2 0
-9.374421874942642E-3 0
3.1008067925831263E-2 0
-1.2869043737564355E-3 0
1.4370473743326118E-2 0
5.979445814848403E-1 0
1.700677191974297E-2 0
-1.5697739833271148E-3 0
3.29019556920704E-2 0
-1.412825503200766E-2 0
4.929606528269457E-3 0
-1.9842613139354525E-3 0
-3.405376167938898E-2 0
-5.260348683485621E-3 0
1.0750696194000965E-2 0
2.547976937033323E-4 0
-2.8545386442239188E-3 0
3.1033835272959825E-4 0
-2.0907483635776433E-4 0
-3.088769479314288E-3 0
-8.966051805241539E-4 0
-2.5377179548007915E-3 0
1.38201263373424E-3 0
8.790404432475425E-3 0
-1.2273875597677048E-3 0
-1.1868146535850192E-2 0
1.1614484904489317E-3 0
-6.460737075125914E-3 0
-2.9994141531541948E-3 0
2.1659538022284226E-3 0
-4.459149560770625E-3 0
4.0934827652640135E-3 0
-5.883596749858505E-3 0
1.7783781968514715E-3 0
-3.6288890174364396E-3 0
-6.8869463318948915E-3 0
8.556508613764505E-4 0
-1.2144139304216085E-2 0
-9.376903848204163E-4 0
8.923737569804278E-3 0
1.653732195470996E-3 0
-2.053346395056369E-3 0
-5.268072152052393E-4 0
3.5626577895934834E-4 0
4.4734721064934135E-4 0
-3.7621411558118965E-3 0
1.832280523013163E-3 0
1.2993746916034915E-2 0
-1.7844925343213835E-3 0
-2.874482799207181E-2 0
4.373844048900504E-3 0
1.3695057725606165E-2 0
-7.837289126095208E-3 0
3.2282352151748815E-2 0
-1.0735656851616137E-3 0
1.700677191974303E-2 0
5.973140620228601E-1 0
1.6477545065876485E-2 0
4.97950465894781E-4 0
2.8339003377932732E-2 0
-1.4116306742624936E-2 0
1.0436345229094417E-2 0
1.1219279693520752E-3 0
-3.099845944910246E-2 0
-2.7074103630638307E-3 0
1.1633116176599862E-2 0
1.6760788706935202E-3 0
-2.10107085809907E-3 0
-1.87657507327841E-4 0
-6.592477323878978E-4 0
6.605345856567275E-4 0
-7.030303381038569E-4 0
-2.7196884196378215E-3 0
1.400046841201669E-3 0
9.334191635520506E-3 0
-1.1258427288433769E-3 0
-1.2508480275754559E-2 0
1.2316532136620538E-3 0
-6.643302329764294E-3 0
-3.391838296534732E-3 0
1.960221784217708E-3 0
-5.3470353384709E-3 0
4.1077800294655005E-3 0
-6.076181800425065E-3 0
1.2398603604587325E-3 0
-3.904390138241383E-3 0
-6.800301929138391E-3 0
1.246029882958828E-3 0
-1.2669172815346305E-2 0
-1.2148282291279924E-3 0
9.23219592202766E-3 0
1.594632735412051E-3 0
-2.5926674409846003E-3 0
-6.642707958372148E-4 0
5.07633146302309E-4 0
-1.513187473797029E-3 0
-2.7634564448847827E-3 0
1.9076723465234536E-3 0
1.3666670941203137E-2 0
-1.5662600516058152E-3 0
-3.047268075180217E-2 0
4.2329067285080575E-3 0
1.4772838892798764E-2 0
-8.704605939221701E-3 0
3.2967104756811756E-2 0
-1.5697739833271107E-3 0
1.6477545065876467E-2 0
6.090066060471903E-1 0
2.00052750641401E-2 0
5.001814256713339E-4 0
3.289182563250115E-2 0
-9.748932963447993E-3 0
1.4066680142893443E-2 0
4.26703739238399E-3 0
-3.0888593302593446E-2 0
-2.204945262135422E-3 0
1.334555139260869E-2 0
1.8411865078567177E-3 0
-2.6203579689983796E-3 0
-3.310759968452232E-4 0
6.605345856567331E-4 0
4.947259252311514E-4 0
-6.963348654998881E-4 0
-2.5580848011947264E-3 0
1.5625191198141333E-3 0
9.270878404961975E-3 0
-1.2619595408418028E-3 0
-1.2622871436897698E-2 0
1.2103762686949536E-3 0
-6.779121595022227E-3 0
-3.913273625094508E-3 0
1.2418167854638758E-3 0
-6.07618180042505E-3 0
4.107780029465494E-3 0
-5.343846916426065E-3 0
1.945744201257342E-3 0
-3.3568974695051958E-3 0
-6.704256246128419E-3 0
1.3159278349240847E-3 0
-1.2601138185509663E-2 0
-1.0507168671958556E-3 0
9.299923910947241E-3 0
1.4313619920315853E-3 0
-2.797225676364506E-3 0
-6.872481384229656E-4 0
-1.513187473797028E-3 0
-3.583258258655755E-4 0
-2.558379802187833E-3 0
1.8177608319698787E-3 0
1.3388675132087902E-2 0
-2.2917195711854676E-3 0
-3.0796200539051757E-2 0
4.194204094802326E-3 0
1.411364859762884E-2 0
-9.774022348015896E-3 0
3.290195569207039E-2 0
4.979504658947976E-4 0
2.0005275064140158E-2 0
6.090066060471903E-1 0
1.647888652426341E-2 0
-1.575865107654883E-3 0
3.298001395845594E-2 0
-8.718183017416956E-3 0
1.4768091342724499E-2 0
4.281246641093906E-3 0
-3.056361805226161E-2 0
-1.498514114714034E-3 0
1.3724546609739251E-2 0
1.7448573275148586E-3 0
-2.818117022148712E-3 0
-8.912870344056089E-4 0
4.228575266675763E-4 0
3.595225419001892E-4 0
-5.36148913508626E-4 0
-2.043283715581412E-3 0
1.643938802574535E-3 0
8.936107998780475E-3 0
-9.515050353790352E-4 0
-1.2132397068195593E-2 0
8.482430242970201E-4 0
-6.8837844918249475E-3 0
-3.6288816642623457E-3 0
1.7764218719441382E-3 0
-5.880408427911458E-3 0
4.086176741375365E-3 0
-4.4394940805807E-3 0
2.1239107984986523E-3 0
-2.9263061950406113E-3 0
-6.56952847635754E-3 0
1.2998834520718864E-3 0
-1.2004072550093916E-2 0
-1.158811548191965E-3 0
8.840105078668512E-3 0
1.2673735335622012E-3 0
-2.616543650554735E-3 0
-3.752555698504302E-3 0
-5.869026106715294E-4 0
-2.757968660047239E-4 0
-2.0146928296052363E-3 0
1.595003369039809E-3 0
1.1723138929302913E-2 0
-2.800812916141397E-3 0
-3.0915806303251147E-2 0
1.0619429008326044E-3 0
1.0470013969166416E-2 0
-1.4128255032007653E-2 0
2.8339003377932735E-2 0
5.001814256713221E-4 0
1.647888652426342E-2 0
5.973024989929836E-1 0
1.704150932657376E-2 0
-1.1423706644440306E-3 0
3.238120607156755E-2 0
-7.935159736999294E-3 0
1.3729621835862887E-2 0
4.473016642682648E-3 0
-2.899289673366487E-2 0
-1.6449208018216198E-3 0
1.3207106528202006E-2 0
1.7194466193729287E-3 0
-3.543007717441163E-3 0
-7.406964149552677E-4 0
3.4718000372229563E-4 0
7.015522676625435E-4 0
1.3781435438909958E-5 0
-1.9810123902458308E-3 0
1.7292111507567346E-3 0
9.041351198843027E-3 0
-1.4402439180063726E-3 0
-1.2307829734870733E-2 0
1.0021594832542839E-3 0
-6.026763076833162E-3 0
-3.147175249453182E-3 0
1.1885293124691198E-3 0
-5.299668707962459E-3 0
4.422296389613341E-3 0
-4.4313600617266686E-3 0
1.9875469678556877E-3 0
-3.3798511944932445E-3 0
-6.49867929003926E-3 0
1.5489090498316234E-3 0
-1.2185453741330456E-2 0
-9.08077508890162E-4 0
9.126263389752304E-3 0
1.2647364662866079E-3 0
1.907176611113732E-3 0
-2.9074216802657264E-3 0
-2.1110094666407112E-4 0
2.630464898163793E-4 0
-2.7881996284670166E-3 0
1.935973856218554E-4 0
1.0808814771703798E-2 0
-5.315379476947072E-3 0
-3.401059039792429E-2 0
-2.0060866642589753E-3 0
4.929606528269458E-3 0
-1.411630674262492E-2 0
3.289182563250117E-2 0
-1.575865107654886E-3 0
1.7041509326573754E-2 0
5.978675222978385E-1 0
1.4497150289771657E-2 0
-1.4564334284836388E-3 0
3.11921651928164E-2 0
-9.510634308833258E-3 0
1.3586689374527667E-2 0
4.3167341228401305E-3 0
-2.996164675383745E-2 0
-6.16045719468235E-4 0
1.3398525504640267E-2 0
1.8216464964657443E-3 0
-2.6721269768629334E-3 0
-5.81340164259234E-4 0
8.011050034774584E-4 0
9.757031683387722E-4 0
-1.6519482163311188E-4 0
-2.1704225699708704E-3 0
1.4599914299676705E-3 0
8.606536954347791E-3 0
-1.4171118184072037E-3 0
-1.2054597690952518E-2 0
1.4132085443674311E-3 0
-6.4534305264548715E-3 0
-3.7037688721887306E-3 0
1.5663542787018377E-3 0
-4.684523736882431E-3 0
4.33325673912105E-3 0
-4.905303486029929E-3 0
1.6298498533711648E-3 0
-3.077775973115458E-3 0
-6.270065313986059E-3 0
2.062012967904297E-3 0
-1.2203499406515599E-2 0
-3.297532156382074E-4 0
9.125288136350546E-3 0
1.7509053420230302E-2 0
1.517091470743075E-3 0
-2.551238737979767E-3 0
-2.9235183781040606E-4 0
-9.951264556693103E-4 0
-4.004393009276934E-3 0
-6.692328292119009E-4 0
9.181288307812674E-3 0
-6.848566267984364E-3 0
-3.532207124495558E-2 0
-1.984261313935436E-3 0
1.0436345229094415E-2 0
-9.748932963447985E-3 0
3.2980013958455956E-2 0
-1.1423706644440236E-3 0
1.4497150289771651E-2 0
5.929267654971252E-1 0
1.1453329348328557E-2 0
-5.012446599992055E-3 0
2.872511799879381E-2 0
-1.0544043510198435E-2 0
1.2976721677346417E-2 0
4.4107429034289086E-3 0
-3.023221515540071E-2 0
-8.12635571341223E-4 0
1.1988435139608719E-2 0
1.3364083442925104E-3 0
-2.51496893137663E-3 0
-3.765518752405033E-4 0
8.691126003695228E-4 0
8.579335484951155E-4 0
-2.9512368832658513E-4 0
-2.3265461762335456E-3 0
1.252683105146433E-3 0
8.58221980195662E-3 0
-1.305863608867795E-3 0
-1.1713810350064618E-2 0
1.5534039076440847E-3 0
-7.011630270813676E-3 0
-3.3566349776426715E-3 0
1.8518935829583984E-3 0
-4.878371187970235E-3 0
4.1363139812916495E-3 0
-5.153080376569164E-3 0
1.8647026499002037E-3 0
-2.909498718560597E-3 0
-6.15704749725681E-3 0
2.725647753841622E-3 0
-1.2463869501140541E-2 0
-2.214001722476761E-4 0
-2.396696904749166E-3 0
1.2763376235723312E-2 0
1.5152475014527662E-3 0
-3.0528025060166677E-3 0
-1.0055204324564797E-3 0
-1.6339783881936904E-3 0
-4.710449657272218E-3 0
-1.5886576583823107E-3 0
8.322705355708544E-3 0
-6.835441407122384E-3 0
-3.405376167938895E-2 0
1.1219279693520734E-3 0
1.406668014289346E-2 0
-8.718183017416952E-3 0
3.2381206071567546E-2 0
-1.4564334284836217E-3 0
1.1453329348328519E-2 0
5.888704953924094E-1 0
7.977164165809167E-3 0
-7.313801090555516E-3 0
2.7686384788199184E-2 0
-1.2071651993347782E-2 0
1.3469670454007692E-2 0
3.147360460909452E-3 0
-3.000818702235056E-2 0
-8.55224030171102E-4 0
8.700037394139446E-3 0
1.4609143846343571E-3 0
-2.4115108684542963E-3 0
-4.086853710323833E-4 0
8.128285858664315E-4 0
7.511631217910584E-4 0
-4.2515115506982685E-4 0
-2.4012658821690315E-3 0
1.2949381748909882E-3 0
8.887152084480128E-3 0
-8.494446274048968E-4 0
-1.2507205595872206E-2 0
1.1539606154499745E-3 0
-6.6577769974402855E-3 0
-3.2225571752307913E-3 0
1.7873100058752877E-3 0
-5.067700814963239E-3 0
4.345697967745883E-3 0
-5.282981635476317E-3 0
2.2988819931439664E-3 0
-2.9026243551747914E-3 0
-5.8534157214057934E-3 0
2.733896271268616E-3 0
-1.2344579060578943E-2 0
-3.901581067968155E-2 0
-1.7708000479056633E-3 0
1.2411534707339937E-2 0
1.2384649623291557E-3 0
-3.5531106470003053E-3 0
-1.4356698353216028E-3 0
-1.951700847291469E-3 0
-5.035458061007487E-3 0
-1.6066122825061215E-3 0
9.174615657058936E-3 0
-5.260348683485606E-3 0
-3.0998459449102463E-2 0
4.267037392383994E-3 0
1.4768091342724504E-2 0
-7.935159736999283E-3 0
3.1192165192816403E-2 0
-5.012446599992077E-3 0
7.977164165809207E-3 0
5.861209421250737E-1 0
5.713628825625021E-3 0
-8.591745961466992E-3 0
2.7458830362560423E-2 0
-1.3784041424894384E-2 0
1.499372742682726E-2 0
2.2316901385037173E-3 0
-1.5590355640751896E-2 0
-5.166657692425754E-4 0
8.692197110046467E-3 0
1.480911515467376E-3 0
-2.3645456022218137E-3 0
-5.033581011009918E-4 0
7.625753391902074E-4 0
7.400331729192417E-4 0
-4.389649723693126E-4 0
-2.324593412025858E-3 0
1.4736895723225024E-3 0
8.752230729077055E-3 0
-1.2342414817821737E-3 0
-1.2581724932855497E-2 0
1.4713866612791838E-3 0
-6.247509535277484E-3 0
-2.908852382456737E-3 0
1.9746484152145002E-3 0
-5.238517448670874E-3 0
4.804772067727444E-3 0
-5.5054386913287725E-3 0
2.852190580032205E-3 0
-3.0687217672144148E-3 0
-5.358099808310286E-3 0
2.3831160049916484E-3 0
3.951385109489293E-3 0
-2.858472419492798E-2 0
-1.7958190683552892E-3 0
1.1920068977505402E-2 0
1.0772473769214452E-3 0
-3.7107111580429565E-3 0
-1.6830127776743353E-3 0
-1.9338886995856474E-3 0
-4.6763107917365725E-3 0
-6.778045489618317E-4 0
1.0750696194000967E-2 0
-2.707410363063834E-3 0
-3.088859330259345E-2 0
4.2812466410939096E-3 0
1.372962183586288E-2 0
-9.510634308833244E-3 0
2.872511799879378E-2 0
-7.31380109055548E-3 0
5.713628825625009E-3 0
5.851480987868014E-1 0
4.093779364674343E-3 0
-8.874197480490816E-3 0
2.747588514246538E-2 0
-1.4660560918786727E-2 0
1.496940189218822E-2 0
3.257422971135909E-3 0
-1.154528753517818E-2 0
-3.6514178520819776E-4 0
8.692705308866231E-3 0
1.3902572088743262E-3 0
-2.2815773328224904E-3 0
-5.499141211211486E-4 0
7.033882649499982E-4 0
8.470481496887792E-4 0
-2.4085616305928205E-4 0
-1.9459057364323857E-3 0
1.7161624417203994E-3 0
9.241611352346678E-3 0
-1.060132297514877E-3 0
-1.2066500385351987E-2 0
1.5147370519087299E-3 0
-6.2119424092124415E-3 0
-2.8381112423420426E-3 0
2.3523770551283495E-3 0
-5.4821436832642E-3 0
5.3921474357922095E-3 0
-5.8670220157621645E-3 0
3.4270785655943037E-3 0
-3.3347537123490116E-3 0
-5.436846620983063E-3 0
1.8427757764188448E-2 0
2.565254619923773E-3 0
-2.9064497360495982E-2 0
-1.5908464582397887E-3 0
1.153528607211741E-2 0
9.525030042377652E-4 0
-3.5005474016124322E-3 0
-1.6090581684767374E-3 0
-1.6361921373101937E-3 0
-3.9865424400346E-3 0
2.5479769370333E-4 0
1.1633116176599864E-2 0
-2.204945262135412E-3 0
-3.0563618052261616E-2 0
4.4730166426826465E-3 0
1.3586689374527665E-2 0
-1.0544043510198442E-2 0
2.7686384788199188E-2 0
-8.591745961466984E-3 0
4.0937793646743E-3 0
5.856437501301067E-1 0
2.084683972246917E-3 0
-8.319729209888566E-3 0
2.7034217977652007E-2 0
-1.4716134555533457E-2 0
-7.662103737842186E-3 0
2.6924031196285726E-3 0
-1.1756503760080434E-2 0
-2.8661979963161114E-4 0
8.809803160856595E-3 0
1.169450541990879E-3 0
-2.219648568808772E-3 0
-4.122500240018152E-4 0
7.474037017590709E-4 0
9.963709201342575E-4 0
1.3392593154423792E-4 0
-2.0066008190658493E-3 0
1.5479665234811408E-3 0
9.34659012287816E-3 0
-1.2055535251496664E-3 0
-1.2297176227245167E-2 0
2.0545060875954597E-3 0
-6.122289650235218E-3 0
-2.858851430789521E-3 0
2.88043118103714E-3 0
-5.855349117659573E-3 0
6.029984244000718E-3 0
-6.326572067677967E-3 0
3.81498290900715E-3 0
-3.1982324620495927E-3 0
-1.9850973903721463E-2 0
1.3369327272289833E-2 0
2.7723576845871214E-3 0
-2.982751168683092E-2 0
-1.1386263084899341E-3 0
1.1523474753645522E-2 0
6.236388333984579E-4 0
-3.11009041082197E-3 0
-1.0705435184559997E-3 0
-1.031553364773417E-3 0
-2.8545386442239197E-3 0
1.676078870693514E-3 0
1.3345551392608693E-2 0
-1.4985141147140382E-3 0
-2.8992896733664855E-2 0
4.316734122840133E-3 0
1.2976721677346424E-2 0
-1.2071651993347787E-2 0
2.7458830362560423E-2 0
-8.874197480490831E-3 0
2.0846839722469305E-3 0
5.880166577457978E-1 0
-1.0102911106435446E-3 0
-7.0946067288435305E-3 0
2.7908892628155085E-2 0
-3.2511999686861436E-3 0
-5.8334323587819915E-3 0
3.0543186141279567E-3 0
-1.1945280604397063E-2 0
-3.48269300050095E-4 0
9.12014268168893E-3 0
9.457554772884383E-4 0
-2.384169502609202E-3 0
-2.711665040629146E-4 0
7.553312170716186E-4 0
5.868573468190562E-4 0
-6.885404208763064E-4 0
-2.691491352753231E-3 0
1.5301859038002194E-3 0
9.00183742502067E-3 0
-8.206980757343571E-4 0
-1.2168335890388876E-2 0
2.7594604189581868E-3 0
-5.820826117492581E-3 0
-3.0449254010522977E-3 0
3.4399625593935263E-3 0
-6.322062356707004E-3 0
6.615599675239093E-3 0
-6.507909040974064E-3 0
3.4705012936895297E-3 0
3.91784870137795E-2 0
-1.5186575205901618E-2 0
1.3048622161181545E-2 0
3.4966426901216906E-3 0
-3.0709844048981246E-2 0
-7.131664422062252E-4 0
1.2271348083464109E-2 0
3.9709011803157676E-4 0
-2.8633061600004187E-3 0
-1.783776423846937E-4 0
3.1033835272958963E-4 0
-2.1010708580990766E-3 0
1.8411865078567257E-3 0
1.3724546609739242E-2 0
-1.6449208018216109E-3 0
-2.996164675383745E-2 0
4.410742903428908E-3 0
1.3469670454007689E-2 0
-1.378404142489438E-2 0
2.747588514246538E-2 0
-8.319729209888549E-3 0
-1.0102911106435563E-3 0
5.920972641918865E-1 0
-4.7062930749763665E-3 0
-8.533839912160836E-3 0
3.498916541471775E-3 0
-2.054051561339513E-3 0
-6.137343036288339E-3 0
3.162766806537087E-3 0
-1.1822621909892594E-2 0
-8.728939455500689E-4 0
9.475287691870993E-3 0
1.2352451740081762E-3 0
-2.719774504844446E-3 0
-6.521789601867101E-4 0
2.4392625561146298E-4 0
2.4224138293964305E-4 0
-6.835264664903699E-4 0
-2.777970005711362E-3 0
1.381396076942655E-3 0
9.274176018939633E-3 0
-2.517233738867175E-4 0
-1.2422417972660041E-2 0
2.7572426566319142E-3 0
-5.3425350254476525E-3 0
-3.32530586715522E-3 0
3.81983994495706E-3 0
-6.506374171357733E-3 0
6.592827461838292E-3 0
-5.937219623761263E-3 0
-1.8235243938487196E-2 0
2.8711188702606118E-2 0
-1.4512535873236561E-2 0
1.1907529246740682E-2 0
4.703280360075839E-3 0
-3.110658025645866E-2 0
-1.6331054402689657E-3 0
1.342886489506303E-2 0
1.2354549275843843E-3 0
-2.7482120023667234E-3 0
-2.0907483635777257E-4 0
-1.8765750732783614E-4 0
-2.6203579689983813E-3 0
1.744857327514865E-3 0
1.3207106528202006E-2 0
-6.160457194682479E-4 0
-3.0232215155400716E-2 0
3.1473604609094487E-3 0
1.499372742682726E-2 0
-1.4660560918786704E-2 0
2.7034217977652007E-2 0
-7.094606728843522E-3 0
-4.706293074976373E-3 0
5.945242915319904E-1 0
-5.244304281767391E-4 0
-6.661726185338747E-3 0
2.3924240603256835E-3 0
-2.1759634536472985E-3 0
-6.061499633802867E-3 0
2.6797764117307845E-3 0
-1.1750202706800708E-2 0
-1.1298147746138633E-3 0
9.376083450808419E-3 0
1.4117573176302036E-3 0
-2.848478545161231E-3 0
-8.765946620527758E-4 0
4.443092243277407E-4 0
5.326023579304801E-4 0
-7.122173500511416E-4 0
-2.613505963972377E-3 0
1.3254562326046495E-3 0
9.179202872723061E-3 0
-1.9228254350266394E-4 0
-1.2331174373524875E-2 0
2.390826074243665E-3 0
-5.432093902994943E-3 0
-3.195471603971597E-3 0
3.471735822833803E-3 0
-5.936878317907005E-3 0
5.810270373628983E-3 0
7.1255186971658545E-3 0
-1.2282523651989374E-2 0
2.7771099671719705E-2 0
-1.3254681136687553E-2 0
1.1745276657950967E-2 0
4.618040141972196E-3 0
-3.067838092273658E-2 0
-2.230818582975554E-3 0
1.3544800484092194E-2 0
1.7376283132489753E-3 0
-3.088769479314283E-3 0
-6.592477323879042E-4 0
-3.3107599684522584E-4 0
-2.818117022148708E-3 0
1.7194466193729218E-3 0
1.339852550464026E-2 0
-8.126355713412295E-4 0
-3.0008187022350547E-2 0
2.2316901385037126E-3 0
1.4969401892188209E-2 0
-1.471613455553347E-2 0
2.790889262815511E-2 0
-8.533839912160841E-3 0
-5.244304281767653E-4 0
5.939557231376602E-1 0
