%%MatrixMarket matrix array complex general
%
50 50
4.6849509938668754E-1 0
1.8476687561142944E-3 0
-3.200422916966721E-3 0
1.2011638174621595E-3 0
-4.338641130960601E-3 0
5.496856517703208E-4 0
-3.621039839343589E-3 0
-1.9363033540328166E-3 0
8.778889403364912E-4 0
-2.5259733184071604E-3 0
4.528958954876564E-3 0
5.156136058488591E-3 0
-5.0014536562716E-3 0
-5.001453656271651E-3 0
5.158527795716887E-3 0
4.518098857419347E-3 0
-2.4980779840994834E-3 0
8.208134819375366E-4 0
-1.8307780585866378E-3 0
-3.8044474962805343E-3 0
8.530168197668945E-4 0
-4.79873221883144E-3 0
1.8390775840957595E-3 0
-3.8519315241539597E-3 0
2.2489637656080887E-3 0
-2.452425809321892E-3 0
8.204693863399457E-3 0
-7.775613298623065E-4 0
5.346267845425501E-3 0
2.2479121362558433E-3 0
-2.0317954204155677E-3 0
5.883332308939541E-3 0
-1.0307677746222007E-2 0
1.533464843524861E-3 0
-3.4312613805312564E-3 0
-1.0867982186184079E-2 0
4.074475577003879E-3 0
7.743937391726627E-3 0
7.743937391726608E-3 0
4.068816588253805E-3 0
-1.0842286566862086E-2 0
-3.4939237986364004E-3 0
1.6460112021608102E-3 0
-1.0472242615257386E-2 0
6.082588306159632E-3 0
-2.211299790814627E-3 0
2.31103437721524E-3 0
5.565240445938941E-3 0
-1.242163998088652E-3 0
8.919830652287844E-3 0
1.8476687561142964E-3 0
4.8321037253106863E-1 0
1.3223434392171422E-3 0
-2.342895161086275E-3 0
8.35978743487193E-4 0
-3.2211835521523745E-3 0
3.2510075863614207E-4 0
-2.7536646248545998E-3 0
-1.571851667988956E-3 0
4.178707030008296E-4 0
-2.069288362489661E-3 0
3.2357916288445103E-3 0
4.017561600717636E-3 0
-3.7499943832151224E-3 0
-3.464395355856559E-3 0
3.979779422668746E-3 0
3.478711093018934E-3 0
-1.6981980606208412E-3 0
6.712067890501963E-4 0
-1.2734861801682697E-3 0
-2.7663791092457585E-3 0
7.084793652203108E-4 0
-3.541562743313561E-3 0
1.344097429076415E-3 0
-2.6267665571283673E-3 0
8.204693863398277E-3 0
-1.220236546110212E-3 0
6.024503393699106E-3 0
-5.601320904593122E-4 0
3.8860335993605465E-3 0
1.6558854881177927E-3 0
-1.492048950609149E-3 0
4.257950497119553E-3 0
-7.585639651590264E-3 0
9.323765059904766E-4 0
-2.980380913773402E-3 0
-8.312895565165615E-3 0
3.048392594809462E-3 0
5.524825360634302E-3 0
5.5710202697962265E-3 0
3.3059729164569797E-3 0
-7.7358193850886655E-3 0
-2.5126665253065133E-3 0
1.2961337104868288E-3 0
-7.74828382509682E-3 0
4.552532660285559E-3 0
-1.8563312649478427E-3 0
1.8319223452473265E-3 0
3.7991653921699885E-3 0
-6.547769809067857E-4 0
-3.2004229169667183E-3 0
1.3223434392171543E-3 0
4.8317468243654044E-1 0
1.277368094328568E-3 0
-2.397253520697217E-3 0
7.694729013231465E-4 0
-3.306832842818679E-3 0
2.1222948817320824E-4 0
-2.8969330814333735E-3 0
-1.7014331858510917E-3 0
4.428015505749829E-4 0
-1.835102102552231E-3 0
3.6007164893446884E-3 0
4.0531782325571655E-3 0
-3.465362681665476E-3 0
-3.360257274497659E-3 0
3.998265597573117E-3 0
3.4873598797079916E-3 0
-1.6976269740370355E-3 0
7.074457560847155E-4 0
-1.2428825428948277E-3 0
-2.753073316232442E-3 0
7.774950811379762E-4 0
-3.5019117843345005E-3 0
1.143585236732501E-3 0
-7.775613298607125E-4 0
6.023818833438801E-3 0
-1.1957918777893838E-3 0
6.053679851896494E-3 0
-5.304510942495783E-4 0
3.909388191133674E-3 0
1.6602244008312444E-3 0
-1.5268884259295127E-3 0
4.1317463058109455E-3 0
-7.832799038221898E-3 0
5.09432325540175E-4 0
-3.0213311877922006E-3 0
-8.657657216280283E-3 0
2.8133903758471813E-3 0
5.28728426212523E-3 0
5.501424929623583E-3 0
2.996133438572486E-3 0
-7.7719992333101515E-3 0
-2.640278292528924E-3 0
1.3555825115523226E-3 0
-7.948528384635332E-3 0
4.764993593589731E-3 0
-2.143726839166284E-3 0
2.053521340128758E-3 0
3.8761014876629754E-3 0
1.2011638174621584E-3 0
-2.3428951610862843E-3 0
1.2773680943286069E-3 0
4.8312064635537416E-1 0
1.2129817316089786E-3 0
-2.4756013354077368E-3 0
6.716448460169644E-4 0
-3.426035167515089E-3 0
8.192988030896672E-5 0
-2.9917363813562986E-3 0
-1.7017274765951155E-3 0
5.356068666341247E-4 0
-1.908101078117017E-3 0
3.4919215615266223E-3 0
3.846730399477909E-3 0
-3.341952933793596E-3 0
-3.297652657109021E-3 0
3.9702373906274225E-3 0
3.4915890838266945E-3 0
-1.7183288870990605E-3 0
7.549665104173007E-4 0
-1.2607599849535308E-3 0
-2.7254331296638658E-3 0
7.016634822551645E-4 0
-3.433173200174101E-3 0
5.346267845424044E-3 0
-5.623518019980582E-4 0
6.051313701064653E-3 0
-1.1654577753089533E-3 0
6.083707280660198E-3 0
-5.055762193066639E-4 0
3.919601454002006E-3 0
1.6414810881714029E-3 0
-1.6125253512988245E-3 0
3.977815087325942E-3 0
-8.127710012445588E-3 0
4.441270647433414E-4 0
-3.1675032868115492E-3 0
-8.82583540484197E-3 0
2.8563352297752667E-3 0
5.334286091304452E-3 0
5.2072638290576005E-3 0
2.773535127060084E-3 0
-7.885151362423007E-3 0
-2.7709320397073978E-3 0
1.439271798677041E-3 0
-8.185794521330721E-3 0
5.056833251554131E-3 0
-2.3565420381674515E-3 0
2.053614448534332E-3 0
-4.338641130960597E-3 0
8.359787434872193E-4 0
-2.397253520697222E-3 0
1.2129817316089949E-3 0
4.830440526331707E-1 0
1.1199547730576288E-3 0
-2.589995870684098E-3 0
5.351989344195466E-4 0
-3.586468363052364E-3 0
-9.199124751266669E-5 0
-3.2818565097032988E-3 0
-1.9294435208843759E-3 0
4.4428443439627235E-4 0
-2.014068056810056E-3 0
3.5411026983900584E-3 0
4.170550132355071E-3 0
-3.2497555964173916E-3 0
-3.259157850969283E-3 0
3.949455650666537E-3 0
3.5283271211802455E-3 0
-1.7625925829513162E-3 0
8.371335699584064E-4 0
-1.3360856966810081E-3 0
-2.6313011744749414E-3 0
5.077351532117641E-4 0
2.2479121362568833E-3 0
3.881983259261939E-3 0
-5.356619566755102E-4 0
6.0807968777261715E-3 0
-1.1324281645923118E-3 0
6.121021542870586E-3 0
-4.641519041295678E-4 0
3.965782310777452E-3 0
1.6954875645558269E-3 0
-1.5213688640732458E-3 0
4.15438989021333E-3 0
-7.840281072838703E-3 0
6.203638103600718E-4 0
-3.1137825114556485E-3 0
-8.29852024351152E-3 0
2.5799243926320587E-3 0
4.887002688042613E-3 0
4.908143019795658E-3 0
2.6075649237361142E-3 0
-7.973341011174176E-3 0
-2.8557175523948467E-3 0
1.5370890608030754E-3 0
-8.3999216785987E-3 0
5.175161217961626E-3 0
-2.066714861952425E-3 0
5.496856517703219E-4 0
-3.2211835521523883E-3 0
7.694729013231779E-4 0
-2.4756013354077363E-3 0
1.1199547730576416E-3 0
4.8293043870547975E-1 0
9.789666713833172E-4 0
-2.7607590496142964E-3 0
3.2679069973063827E-4 0
-3.8261002594828686E-3 0
-3.7743069428710204E-4 0
-3.380954184060577E-3 0
-2.0159545209248223E-3 0
4.611804936333816E-4 0
-1.6735912251830839E-3 0
3.6652155680346942E-3 0
4.1324479997473925E-3 0
-3.2349534674158136E-3 0
-3.240020629445525E-3 0
3.933252123308507E-3 0
3.5804403312398115E-3 0
-1.8458764512936483E-3 0
9.44935534849228E-4 0
-1.4859773313719293E-3 0
-2.6841239872566346E-3 0
-2.0317954204162715E-3 0
1.6506896303401678E-3 0
3.9029961524459336E-3 0
-5.084204052721397E-4 0
6.122554710895867E-3 0
-1.0666891485772852E-3 0
6.22180988433932E-3 0
-3.146525897292828E-4 0
4.195635905490075E-3 0
2.021899037685469E-3 0
-1.0172971651507866E-3 0
4.436436771140807E-3 0
-8.241945457980515E-3 0
7.45674780534646E-4 0
-3.1425824829582026E-3 0
-8.67823615562363E-3 0
2.304323665991706E-3 0
4.666792773770101E-3 0
4.726837138363845E-3 0
2.569432699661979E-3 0
-8.055966554106312E-3 0
-2.8180125043982883E-3 0
1.6021703532619494E-3 0
-8.325088245262062E-3 0
4.904861179285613E-3 0
-3.621039839343591E-3 0
3.251007586361521E-4 0
-3.306832842818698E-3 0
6.71644846016975E-4 0
-2.589995870684089E-3 0
9.789666713833334E-4 0
4.827532343449075E-1 0
7.635642734986118E-4 0
-3.010515215082224E-3 0
7.046948721053653E-5 0
-4.053121603953381E-3 0
-4.591273703414498E-4 0
-3.4979885529850567E-3 0
-1.8659368297743177E-3 0
6.602547053852868E-4 0
-1.5459718761983553E-3 0
3.678547312076531E-3 0
4.152499672698098E-3 0
-3.221069082579892E-3 0
-3.227148743624788E-3 0
3.916788580994161E-3 0
3.6196930407424244E-3 0
-1.9421631553532687E-3 0
1.0138894413064155E-3 0
-1.5642502008072338E-3 0
5.883332308939997E-3 0
-1.4984062522520392E-3 0
1.6552664357387097E-3 0
3.9241615783674E-3 0
-4.495051652355685E-4 0
6.237395999346931E-3 0
-8.811196809697623E-4 0
6.48951384086565E-3 0
5.768531842781602E-5 0
4.638462908454321E-3 0
2.399045030253606E-3 0
-1.0902367936792147E-3 0
4.474320001875642E-3 0
-8.191401408830123E-3 0
5.575071481062958E-4 0
-3.280929281754547E-3 0
-8.701281571926386E-3 0
2.1630227205607145E-3 0
4.6068109897305235E-3 0
4.607248438217706E-3 0
2.661583821764894E-3 0
-8.213088736972542E-3 0
-2.5808696864845033E-3 0
1.3170780367364196E-3 0
-8.068027909522588E-3 0
-1.9363033540328127E-3 0
-2.7536646248546032E-3 0
2.1222948817321767E-4 0
-3.4260351675150986E-3 0
5.351989344195383E-4 0
-2.760759049614286E-3 0
7.635642734986199E-4 0
4.824919472696564E-1 0
4.6834359906049904E-4 0
-3.2999272444947463E-3 0
-1.9861297291847105E-4 0
-4.244342328471974E-3 0
-4.988654650832822E-4 0
-3.286491231518601E-3 0
-1.4269079902481335E-3 0
9.295852713601306E-4 0
-1.4237444439774202E-3 0
3.74837959999675E-3 0
4.16539300531631E-3 0
-3.203287266691337E-3 0
-3.2608936246508236E-3 0
3.93572123272327E-3 0
3.617508683316123E-3 0
-1.9332826813084928E-3 0
8.776137713786954E-4 0
-1.030767774622235E-2 0
4.245875931397258E-3 0
-1.5306363409155945E-3 0
1.6637374941997712E-3 0
4.011426171747815E-3 0
-2.643918249096988E-4 0
6.522246959873713E-3 0
-5.058710478930981E-4 0
6.953800700694631E-3 0
5.502058758790898E-4 0
5.153252011178954E-3 0
2.5862269403540395E-3 0
-1.1850472878422137E-3 0
4.512557419039946E-3 0
-8.153231089162901E-3 0
7.754687279885007E-5 0
-3.427691308504461E-3 0
-8.76769786053628E-3 0
2.113103709810905E-3 0
4.603186079449496E-3 0
4.535528312820997E-3 0
2.886244922037025E-3 0
-8.398300007883525E-3 0
-2.1494144238322632E-3 0
1.0771152251807434E-3 0
8.778889403364932E-4 0
-1.5718516679889551E-3 0
-2.8969330814333765E-3 0
8.192988030897079E-5 0
-3.5864683630523583E-3 0
3.2679069973063095E-4 0
-3.010515215082235E-3 0
4.6834359906053514E-4 0
4.821399993426452E-1 0
7.833316121074444E-5 0
-3.6470576550611013E-3 0
-4.056443949041514E-4 0
-4.461631168006449E-3 0
-2.3569269559707432E-4 0
-2.7530701730808325E-3 0
-1.1023574990488615E-3 0
1.15647999284622E-3 0
-1.3367693147829604E-3 0
3.761221750323218E-3 0
4.1197577486145436E-3 0
-3.17728508184396E-3 0
-3.3408804771557455E-3 0
4.018405405583592E-3 0
3.5323567517797612E-3 0
-1.8557966206498638E-3 0
1.5334648435250814E-3 0
-7.632501381991516E-3 0
4.11532492216791E-3 0
-1.5546180088033196E-3 0
1.7990465200305827E-3 0
4.298613466637814E-3 0
1.3100178641502756E-4 0
6.983922187312122E-3 0
5.021334624283465E-6 0
7.458590679313774E-3 0
1.031543213210738E-3 0
5.20432599933978E-3 0
2.5234059528822517E-3 0
-1.3573585207940896E-3 0
3.7235028991248957E-3 0
-8.5502472633168E-3 0
4.924720335637087E-5 0
-3.45799093105526E-3 0
-8.81318126690599E-3 0
2.0963959234862536E-3 0
4.630517377704375E-3 0
4.578769952171112E-3 0
3.2225439357589413E-3 0
-8.447470323950398E-3 0
-2.1802306491141817E-3 0
-2.5259733184071656E-3 0
4.1787070300082713E-4 0
-1.7014331858510917E-3 0
-2.991736381356299E-3 0
-9.199124751266738E-5 0
-3.826100259482868E-3 0
7.04694872105397E-5 0
-3.2999272444947576E-3 0
7.83331612107314E-5 0
4.81615801761106E-1 0
-4.4845972083611493E-4 0
-3.976573883438223E-3 0
-4.7569294068607455E-4 0
-4.226524662757189E-3 0
2.4060845950664948E-4 0
-2.2175525345341242E-3 0
-8.170670556903019E-4 0
1.1634498964114934E-3 0
-1.4402403075045496E-3 0
3.7081245147383315E-3 0
4.078783213967314E-3 0
-3.1473885584771028E-3 0
-3.4979201777604087E-3 0
4.2577350030276505E-3 0
3.541189273361493E-3 0
-3.4312613805313483E-3 0
8.043556893961417E-4 0
-7.882990250778453E-3 0
4.082886249044757E-3 0
-1.361529512453528E-3 0
2.155750068964261E-3 0
4.726307558014654E-3 0
5.783781159386164E-4 0
7.42800765785996E-3 0
3.9309504930835226E-4 0
7.818448816856926E-3 0
1.1032491512621076E-3 0
5.304818628626318E-3 0
2.2174233894842713E-3 0
-1.8831646132893693E-3 0
3.3736969997774395E-3 0
-8.501501580306855E-3 0
6.988951680776863E-5 0
-3.424728655624469E-3 0
-8.840921988494482E-3 0
2.2199877007796293E-3 0
4.724648625953719E-3 0
4.945403071678256E-3 0
3.373775073499907E-3 0
-8.245268547874225E-3 0
4.528958954876565E-3 0
-2.0692883624896592E-3 0
4.42801550574984E-4 0
-1.7017274765951142E-3 0
-3.2818565097032927E-3 0
-3.7743069428709645E-4 0
-4.0531216039533845E-3 0
-1.986129729184667E-4 0
-3.6470576550610844E-3 0
-4.484597208361331E-4 0
4.807171311502389E-1 0
-1.1107966908136097E-3 0
-4.3616649507119245E-3 0
-4.662696662945689E-4 0
-3.282758797598305E-3 0
1.017551245396388E-3 0
-2.2141341506121104E-3 0
-1.1106754795084566E-3 0
9.417036252385914E-4 0
-1.5571006516804423E-3 0
3.6680693044020183E-3 0
4.178489799901162E-3 0
-3.2929459175497712E-3 0
-3.5106003464209826E-3 0
4.292247572569228E-3 0
-1.086798218618412E-2 0
-3.332379084820077E-3 0
4.3475215251892967E-4 0
-7.919065391913225E-3 0
4.2857738261424675E-3 0
-9.21027445551403E-4 0
2.4502901360564052E-3 0
5.1203739275283554E-3 0
9.037170764536974E-4 0
7.584876870176778E-3 0
6.112335065523142E-4 0
8.051394315459485E-3 0
1.216538468249142E-3 0
4.760594923698955E-3 0
1.4898839032664632E-3 0
-1.9932385985946773E-3 0
3.6128704414261047E-3 0
-8.424944096886931E-3 0
9.597745342657799E-5 0
-3.2830294621526285E-3 0
-8.873935809658139E-3 0
2.59951527086518E-3 0
4.936281970525359E-3 0
5.748854686202184E-3 0
3.792902657327739E-3 0
5.156136058488584E-3 0
3.235791628844506E-3 0
-1.8351021025522403E-3 0
5.356068666341206E-4 0
-1.9294435208843824E-3 0
-3.3809541840605804E-3 0
-4.591273703414396E-4 0
-4.244342328471971E-3 0
-4.0564439490416393E-4 0
-3.976573883438204E-3 0
-1.1107966908136507E-3 0
4.8046930271337246E-1 0
-1.2511093860447175E-3 0
-4.7189929273129035E-3 0
-7.037566813276842E-5 0
-3.2810447645334083E-3 0
2.3558602848573193E-4 0
-2.743126701470103E-3 0
-1.4420585804467158E-3 0
6.767724698609457E-4 0
-1.674621911279615E-3 0
3.491819135767269E-3 0
4.0024263812412555E-3 0
-3.6940066554559327E-3 0
-3.529378763855429E-3 0
4.074475577004058E-3 0
-8.632706678156908E-3 0
-3.0159924849928184E-3 0
5.941581307631333E-4 0
-7.947786950159514E-3 0
4.388016908947119E-3 0
-1.1388377804552239E-3 0
2.4746060213055856E-3 0
5.018043440911569E-3 0
6.741493005199598E-4 0
7.332457037335206E-3 0
5.365040443895506E-4 0
8.42948248018451E-3 0
5.902117492318072E-4 0
4.695031915819845E-3 0
2.218892155018936E-3 0
-1.479221587192973E-3 0
3.950165230665574E-3 0
-8.08742264377258E-3 0
6.337060153976074E-4 0
-3.066359017858123E-3 0
-8.3085605310774E-3 0
2.8925528634516666E-3 0
5.124511467297555E-3 0
6.2655622227767325E-3 0
-5.001453656271598E-3 0
4.017561600717634E-3 0
3.6007164893446858E-3 0
-1.9081010781170167E-3 0
4.442844343962748E-4 0
-2.0159545209248145E-3 0
-3.4979885529850575E-3 0
-4.988654650832842E-4 0
-4.461631168006447E-3 0
-4.756929406860799E-4 0
-4.361664950711926E-3 0
-1.251109386044722E-3 0
4.7793875755387527E-1 0
-1.7696698423605747E-3 0
-4.718830957971027E-3 0
-4.6700511616633555E-4 0
-4.2242521867233256E-3 0
-2.421406605984177E-4 0
-3.270326608005818E-3 0
-1.8999742211926213E-3 0
5.170655910785103E-4 0
-2.0790266256994795E-3 0
3.4720942079301833E-3 0
4.210188686985286E-3 0
-4.064035156012988E-3 0
7.743937391726513E-3 0
2.982542445230002E-3 0
-8.612036742808336E-3 0
-3.1584554977250007E-3 0
4.650648430050782E-4 0
-8.322268324451798E-3 0
4.413172840736506E-3 0
-1.2601142295619904E-3 0
2.4259501289114176E-3 0
5.068717621197786E-3 0
5.966379952213084E-4 0
7.967735754828186E-3 0
7.844492186943102E-4 0
8.643929010041981E-3 0
1.0559798354932701E-3 0
5.362235710493644E-3 0
2.497772859288353E-3 0
-1.3379909973795369E-3 0
4.697256396521742E-3 0
-8.25098163075684E-3 0
9.053689219826223E-4 0
-2.9142138957652143E-3 0
-9.07370186658348E-3 0
3.103538674567795E-3 0
5.722940426308149E-3 0
-5.001453656271651E-3 0
-3.7499943832151224E-3 0
4.053178232557167E-3 0
3.4919215615266206E-3 0
-2.0140680568100614E-3 0
4.6118049363337246E-4 0
-1.8659368297743175E-3 0
-3.286491231518602E-3 0
-2.3569269559707665E-4 0
-4.2265246627571865E-3 0
-4.662696662945727E-4 0
-4.718992927312899E-3 0
-1.7696698423605777E-3 0
4.779387575538753E-1 0
-1.2504129389479181E-3 0
-4.364827289473765E-3 0
-4.6859529201030887E-4 0
-4.471344741581012E-3 0
-4.940240050475967E-4 0
-3.481057625477948E-3 0
-2.0845305380446802E-3 0
5.991410190061097E-4 0
-2.1682162496590193E-3 0
3.883072213562433E-3 0
4.102897054866993E-3 0
7.743937391726539E-3 0
5.590675510213928E-3 0
2.7677699023749905E-3 0
-8.834883193928332E-3 0
-2.958483544100772E-3 0
8.259976470059829E-4 0
-8.13025424769101E-3 0
4.587624360759719E-3 0
-1.2599026968232595E-3 0
2.4535243969127877E-3 0
5.380495396726782E-3 0
1.0519584745881335E-3 0
8.643929010041981E-3 0
7.844492186943102E-4 0
7.962858439866178E-3 0
6.18784289216598E-4 0
5.013818117555427E-3 0
2.5289637837769964E-3 0
-1.4237749875645356E-3 0
4.641109418817336E-3 0
-8.588736866344742E-3 0
6.924318181371443E-4 0
-3.138058191099153E-3 0
-8.941301031936539E-3 0
3.3739943042488483E-3 0
5.158527795716882E-3 0
-3.4643953558565607E-3 0
-3.465362681665478E-3 0
3.8467303994779104E-3 0
3.541102698390059E-3 0
-1.673591225183085E-3 0
6.602547053852865E-4 0
-1.4269079902481342E-3 0
-2.7530701730808294E-3 0
2.4060845950665865E-4 0
-3.2827587975982776E-3 0
-7.037566813274919E-5 0
-4.718830957971027E-3 0
-1.250412938947914E-3 0
4.804652596921813E-1 0
-1.0978681350117204E-3 0
-4.00425673574668E-3 0
-3.5971487160966364E-4 0
-4.305970069267418E-3 0
-3.9402940130580435E-4 0
-3.420649574275042E-3 0
-1.9597973332666995E-3 0
7.083865009671868E-4 0
-2.1143573918264414E-3 0
3.5628489060699335E-3 0
4.0688165882538825E-3 0
5.890824726564169E-3 0
5.281944844176263E-3 0
2.7063080910665143E-3 0
-8.19101307197075E-3 0
-3.0941615911782897E-3 0
6.061088406922183E-4 0
-8.04161039772301E-3 0
3.909785801572593E-3 0
-1.4540648444698598E-3 0
2.208837491711723E-3 0
4.695080036343961E-3 0
5.942663839675519E-4 0
8.424571891391907E-3 0
5.450320959942835E-4 0
7.310816770477564E-3 0
7.229977568923815E-4 0
4.9230871589919034E-3 0
2.642346060102914E-3 0
-1.4144044374790304E-3 0
4.805932417568247E-3 0
-8.509549800368691E-3 0
1.184980695507364E-3 0
-3.420909904280885E-3 0
-8.963436409308316E-3 0
4.518098857419351E-3 0
3.979779422668738E-3 0
-3.360257274497661E-3 0
-3.3419529337935963E-3 0
4.170550132355075E-3 0
3.665215568034692E-3 0
-1.5459718761983649E-3 0
9.295852713601256E-4 0
-1.1023574990488593E-3 0
-2.2175525345341203E-3 0
1.0175512453963937E-3 0
-3.2810447645334143E-3 0
-4.6700511616633197E-4 0
-4.364827289473764E-3 0
-1.0978681350117083E-3 0
4.8068308030903073E-1 0
-3.815261206485436E-4 0
-3.7567608723574598E-3 0
-4.227863747029805E-5 0
-4.251668252175064E-3 0
-1.5476553209901195E-4 0
-3.49194755163421E-3 0
-1.57732161154719E-3 0
4.393840996387096E-4 0
-2.202034105025215E-3 0
-1.0842286566862017E-2 0
3.6580013112386756E-3 0
5.576108349906788E-3 0
5.125623638134491E-3 0
2.448534580073584E-3 0
-8.774510550238134E-3 0
-3.3321775924095545E-3 0
1.1042598994557171E-4 0
-8.422422688639894E-3 0
3.607269318441384E-3 0
-1.9933126584342287E-3 0
1.4997363773139405E-3 0
4.742184151870407E-3 0
1.238835847839838E-3 0
8.029988858503546E-3 0
6.308611450293982E-4 0
7.561458507125469E-3 0
9.458244907711596E-4 0
5.028773569194092E-3 0
2.643375238025183E-3 0
-1.2925743967577476E-3 0
4.910358669901065E-3 0
-8.819600623784484E-3 0
1.348949082861108E-3 0
-3.938929966584188E-3 0
-2.4980779840994886E-3 0
3.4787110930189357E-3 0
3.998265597573117E-3 0
-3.297652657109016E-3 0
-3.2497555964173886E-3 0
4.132447999747394E-3 0
3.6785473120765294E-3 0
-1.4237444439774195E-3 0
1.1564799928462178E-3 0
-8.17067055690304E-4 0
-2.2141341506121156E-3 0
2.3558602848572428E-4 0
-4.224252186723325E-3 0
-4.6859529201030833E-4 0
-4.004256735746677E-3 0
-3.81526120648537E-4 0
4.814918712853662E-1 0
2.750709308337462E-4 0
-3.5772563368869107E-3 0
4.274537238137917E-4 0
-4.250306143976785E-3 0
3.6817344696717384E-4 0
-3.4155081899225267E-3 0
-1.415236410280346E-3 0
3.254066063507732E-4 0
-3.4939237986364793E-3 0
-7.607871795394546E-3 0
3.046316757010731E-3 0
5.102235901545672E-3 0
4.727177688563981E-3 0
2.170484060688384E-3 0
-8.789118365594624E-3 0
-3.455865884253929E-3 0
7.98348006203736E-5 0
-8.501499810923834E-3 0
3.3794935920529994E-3 0
-1.9077659148288935E-3 0
2.262051227999836E-3 0
5.24953974884396E-3 0
1.1515420029436282E-3 0
7.794835726947927E-3 0
3.839112196513545E-4 0
7.464161562623208E-3 0
5.421200393927305E-4 0
4.709258884817692E-3 0
2.3153542977786237E-3 0
-1.7750484403134756E-3 0
4.883998554670385E-3 0
-8.874973838065035E-3 0
1.3686439589095732E-3 0
8.208134819375396E-4 0
-1.6981980606208438E-3 0
3.487359879707985E-3 0
3.970237390627417E-3 0
-3.2591578509692854E-3 0
-3.2349534674158123E-3 0
4.152499672698096E-3 0
3.7483795999967437E-3 0
-1.3367693147829582E-3 0
1.1634498964114967E-3 0
-1.110675479508455E-3 0
-2.7431267014700993E-3 0
-2.4214066059841693E-4 0
-4.471344741581011E-3 0
-3.597148716096656E-4 0
-3.756760872357475E-3 0
2.7507093083375023E-4 0
4.818345521919766E-1 0
8.935965001292832E-4 0
-3.556730216137996E-3 0
9.837123533209913E-4 0
-4.323994319933846E-3 0
8.430660935038603E-4 0
-3.525343845819257E-3 0
-1.365075308602846E-3 0
1.646011202160791E-3 0
-2.4656756354133206E-3 0
-7.755563793726943E-3 0
2.7155513837383146E-3 0
4.804558182338223E-3 0
4.563794565788955E-3 0
2.089691943184752E-3 0
-8.797816064297767E-3 0
-3.458002936294301E-3 0
3.929009383040995E-5 0
-8.553192241277473E-3 0
3.7627728547418517E-3 0
-1.4361822218483295E-3 0
2.6271550082457916E-3 0
5.11047987665856E-3 0
1.074071083418705E-3 0
7.494765542923026E-3 0
-1.1701910139562197E-4 0
7.173520795937792E-3 0
-8.101581443574691E-5 0
4.4557477594468035E-3 0
1.8082232986027383E-3 0
-1.9085076833164354E-3 0
4.752599635494237E-3 0
-8.44384176694537E-3 0
-1.8307780585866355E-3 0
6.712067890502013E-4 0
-1.697626974037034E-3 0
3.4915890838266884E-3 0
3.9494556506665356E-3 0
-3.2400206294455228E-3 0
-3.2210690825798995E-3 0
4.1653930053163046E-3 0
3.761221750323219E-3 0
-1.4402403075045355E-3 0
9.417036252385952E-4 0
-1.442058580446713E-3 0
-3.2703266080058185E-3 0
-4.940240050475962E-4 0
-4.305970069267424E-3 0
-4.227863747030697E-5 0
-3.5772563368869203E-3 0
8.93596500129294E-4 0
4.8190332846254336E-1 0
1.5213241363327982E-3 0
-3.676222228220939E-3 0
1.5646466668910732E-3 0
-4.494860729933872E-3 0
1.1109453288822803E-3 0
-3.33645176935425E-3 0
-1.0472242615257277E-2 0
1.3080235275422095E-3 0
-2.6365507998428288E-3 0
-7.907298014534239E-3 0
2.5619597375443445E-3 0
4.676607406096083E-3 0
4.574099832127434E-3 0
2.113101973001283E-3 0
-8.783028798839587E-3 0
-3.396487779039931E-3 0
6.394669601357505E-5 0
-8.197063532721942E-3 0
4.623436390248703E-3 0
-1.349954981291492E-3 0
2.75198672989743E-3 0
5.060805321717664E-3 0
5.138769107364446E-4 0
7.143371509901599E-3 0
-8.393956696746874E-4 0
6.962777546065817E-3 0
-7.542934604168273E-4 0
4.457157555853319E-3 0
1.4214011188224502E-3 0
-1.570694339504028E-3 0
4.611448562279473E-3 0
-3.8044474962805374E-3 0
-1.2734861801682726E-3 0
7.074457560847176E-4 0
-1.7183288870990564E-3 0
3.5283271211802463E-3 0
3.9332521233085066E-3 0
-3.227148743624789E-3 0
-3.203287266691337E-3 0
4.119757748614542E-3 0
3.70812451473834E-3 0
-1.5571006516804373E-3 0
6.767724698609417E-4 0
-1.8999742211926204E-3 0
-3.4810576254779477E-3 0
-3.9402940130580836E-4 0
-4.251668252175065E-3 0
4.2745372381378636E-4 0
-3.5567302161380065E-3 0
1.521324136332832E-3 0
4.81762209429631E-1 0
2.2032337257541744E-3 0
-3.98864650274393E-3 0
2.121721689708851E-3 0
-4.514437535696146E-3 0
9.390597623461774E-4 0
6.082588306159477E-3 0
-7.7417019332742575E-3 0
1.360565736156803E-3 0
-2.775626802230593E-3 0
-7.988038340760254E-3 0
2.5538053898652743E-3 0
4.6072178709854065E-3 0
4.635912989330263E-3 0
2.1696362056255417E-3 0
-8.753282387391308E-3 0
-3.233403065566954E-3 0
5.817982212827819E-4 0
-8.314073589176366E-3 0
4.7042013772368545E-3 0
-1.3624959601777206E-3 0
2.5937457393128754E-3 0
4.621626902148595E-3 0
-1.542700439607999E-4 0
6.9300722553021716E-3 0
-1.514629060103333E-3 0
7.018799527212487E-3 0
-1.298120114435898E-3 0
4.695652379477294E-3 0
1.163536211218027E-3 0
-1.469035009577605E-3 0
8.530168197668971E-4 0
-2.76637910924576E-3 0
-1.2428825428948288E-3 0
7.549665104172966E-4 0
-1.762592582951319E-3 0
3.5804403312398076E-3 0
3.9167885809941565E-3 0
-3.2608936246508215E-3 0
-3.1772850818439636E-3 0
4.078783213967319E-3 0
3.668069304402021E-3 0
-1.6746219112796171E-3 0
5.170655910785152E-4 0
-2.0845305380446854E-3 0
-3.4206495742750385E-3 0
-1.5476553209901235E-4 0
-4.250306143976787E-3 0
9.83712353320989E-4 0
-3.676222228220925E-3 0
2.2032337257541727E-3 0
4.8135636266757786E-1 0
3.0006890706037017E-3 0
-4.476517356827969E-3 0
2.4341859949918534E-3 0
-4.228838567817102E-3 0
-2.2112997908145474E-3 0
4.557492039428778E-3 0
-7.942162822867622E-3 0
1.4422610530509335E-3 0
-2.857190114739076E-3 0
-8.055915174767583E-3 0
2.677212734589677E-3 0
4.585820494491077E-3 0
4.733682176488446E-3 0
2.3543670171911383E-3 0
-8.774743803948387E-3 0
-3.1096406848808264E-3 0
8.278070103563768E-4 0
-8.51117495471851E-3 0
4.849215162419017E-3 0
-1.3917712965326654E-3 0
2.1809869259884693E-3 0
4.352561459073612E-3 0
-8.04553572150039E-4 0
7.0031285970013546E-3 0
-2.099228272045687E-3 0
7.330879132145608E-3 0
-1.7777032653754053E-3 0
4.934155052601646E-3 0
1.3374950928596566E-3 0
-4.798732218831435E-3 0
7.084793652203113E-4 0
-2.753073316232444E-3 0
-1.2607599849535354E-3 0
8.371335699584052E-4 0
-1.8458764512936509E-3 0
3.61969304074242E-3 0
3.935721232723271E-3 0
-3.3408804771557403E-3 0
-3.147388558477105E-3 0
4.178489799901164E-3 0
3.491819135767271E-3 0
-2.0790266256994726E-3 0
5.991410190061069E-4 0
-1.959797333266695E-3 0
-3.4919475516342175E-3 0
3.681734469671786E-4 0
-4.323994319933847E-3 0
1.5646466668910773E-3 0
-3.988646502743934E-3 0
3.00068907060372E-3 0
4.8063235592064535E-1 0
3.952058073355744E-3 0
-4.744529979430547E-3 0
2.0673903758393225E-3 0
2.3110343772152595E-3 0
-1.8520656986872536E-3 0
4.770226598634077E-3 0
-8.183023738046937E-3 0
1.5370201752219694E-3 0
-2.8165425630732924E-3 0
-8.198505503070486E-3 0
2.9318001258047998E-3 0
4.6819171061882525E-3 0
4.883348505716769E-3 0
2.7261862732996206E-3 0
-8.423112692852518E-3 0
-3.072872862214232E-3 0
8.510907845861664E-4 0
-8.394996426927072E-3 0
4.783682165684827E-3 0
-1.9337348651227869E-3 0
1.7050517903650952E-3 0
4.411639010295535E-3 0
-1.3127518866605957E-3 0
7.329468423511298E-3 0
-2.615912953224911E-3 0
7.73630539603654E-3 0
-1.99423286032835E-3 0
4.780114103984344E-3 0
1.8390775840957582E-3 0
-3.5415627433135677E-3 0
7.774950811379758E-4 0
-2.7254331296638627E-3 0
-1.3360856966810112E-3 0
9.449355348492263E-4 0
-1.9421631553532637E-3 0
3.617508683316125E-3 0
4.018405405583598E-3 0
-3.4979201777604117E-3 0
-3.2929459175497747E-3 0
4.002426381241256E-3 0
3.472094207930187E-3 0
-2.168216249659019E-3 0
7.083865009671883E-4 0
-1.577321611547195E-3 0
-3.415508189922518E-3 0
8.430660935038488E-4 0
-4.4948607299338675E-3 0
2.1217216897088504E-3 0
-4.476517356827969E-3 0
3.952058073355775E-3 0
4.7960449817800826E-1 0
4.7061229944283375E-3 0
-4.297943191274224E-3 0
5.565240445938772E-3 0
1.8339787310557181E-3 0
-2.141367244902098E-3 0
5.056965366196798E-3 0
-8.402739167997678E-3 0
1.5994262240681923E-3 0
-2.57618671766331E-3 0
-8.375819918958399E-3 0
3.2812469156911677E-3 0
5.052417307649194E-3 0
5.150143132808369E-3 0
3.048450623529102E-3 0
-9.062520575976112E-3 0
-3.1492394817065335E-3 0
1.0290869440965627E-3 0
-9.033479988113147E-3 0
4.777028440016957E-3 0
-1.967288589489868E-3 0
1.399032843380383E-3 0
4.690832562456875E-3 0
-1.7748123301857736E-3 0
7.738982632081562E-3 0
-3.1244221302113894E-3 0
7.900637599410893E-3 0
-1.6280671068894597E-3 0
-3.8519315241539627E-3 0
1.344097429076418E-3 0
-3.5019117843344983E-3 0
7.016634822551608E-4 0
-2.6313011744749366E-3 0
-1.4859773313719243E-3 0
1.0138894413064172E-3 0
-1.9332826813084868E-3 0
3.5323567517797634E-3 0
4.257735003027654E-3 0
-3.5106003464209852E-3 0
-3.6940066554559344E-3 0
4.210188686985287E-3 0
3.883072213562433E-3 0
-2.1143573918264414E-3 0
4.3938409963871185E-4 0
-1.4152364102803417E-3 0
-3.525343845819264E-3 0
1.110945328882284E-3 0
-4.514437535696151E-3 0
2.4341859949918655E-3 0
-4.744529979430534E-3 0
4.706122994428326E-3 0
4.793014690920843E-1 0
3.5797509584551547E-3 0
-1.242163998088407E-3 0
3.7999422486022414E-3 0
2.0535088099269383E-3 0
-2.359021923705612E-3 0
5.169838955711795E-3 0
-8.331613202003896E-3 0
1.311944650679378E-3 0
-2.1534934279523487E-3 0
-8.464880285853515E-3 0
3.3214706266435396E-3 0
5.671190843157079E-3 0
5.1289117456275474E-3 0
3.149847500440837E-3 0
-8.987609857809567E-3 0
-3.4253109219869664E-3 0
1.426616283171454E-3 0
-8.82267754825202E-3 0
4.770024099218806E-3 0
-1.5666363372855271E-3 0
1.1686954130340215E-3 0
4.940653263702717E-3 0
-1.9888887460632367E-3 0
7.903111429777118E-3 0
-3.0538673430198166E-3 0
7.513953602999112E-3 0
2.248963765608094E-3 0
-2.6267665571283747E-3 0
1.1435852367324922E-3 0
-3.4331732001741033E-3 0
5.077351532117656E-4 0
-2.684123987256631E-3 0
-1.564250200807232E-3 0
8.776137713786911E-4 0
-1.8557966206498625E-3 0
3.5411892733614903E-3 0
4.2922475725692254E-3 0
-3.529378763855425E-3 0
-4.064035156012989E-3 0
4.102897054867E-3 0
3.56284890606993E-3 0
-2.2020341050252175E-3 0
3.254066063507796E-4 0
-1.3650753086028448E-3 0
-3.336451769354256E-3 0
9.390597623461854E-4 0
-4.228838567817103E-3 0
2.0673903758393255E-3 0
-4.297943191274238E-3 0
3.579750958455138E-3 0
4.801080736526278E-1 0
8.919830652287564E-3 0
-6.548055042143751E-4 0
3.875390322686654E-3 0
2.0513253979614807E-3 0
-2.0709265369690754E-3 0
4.899455665538029E-3 0
-8.07463333791586E-3 0
1.0645675959833384E-3 0
-2.2291303967573953E-3 0
-8.379231816830755E-3 0
3.422511027911955E-3 0
5.927430579403478E-3 0
5.6524203049636125E-3 0
3.4445144255933775E-3 0
-8.62531178928253E-3 0
-3.5685064464417936E-3 0
1.5025299613920916E-3 0
-8.394805731022146E-3 0
4.623801232527285E-3 0
-1.4621925404758587E-3 0
1.3426509272447072E-3 0
4.78455318486848E-3 0
-1.6259507167556927E-3 0
7.5147622542730665E-3 0
-2.0847308466994253E-3 0
-2.4524258093218637E-3 0
8.204693863398284E-3 0
-7.775613298607136E-4 0
5.346267845424035E-3 0
2.2479121362568876E-3 0
-2.031795420416271E-3 0
5.8833323089399914E-3 0
-1.0307677746222354E-2 0
1.5334648435250807E-3 0
-3.4312613805313535E-3 0
-1.0867982186184124E-2 0
4.074475577004056E-3 0
7.743937391726518E-3 0
7.743937391726543E-3 0
4.068816588253887E-3 0
-1.0842286566862027E-2 0
-3.493923798636481E-3 0
1.646011202160789E-3 0
-1.0472242615257284E-2 0
6.082588306159479E-3 0
-2.211299790814551E-3 0
2.311034377215258E-3 0
5.565240445938774E-3 0
-1.2421639980883983E-3 0
8.919830652287554E-3 0
6.940964291885436E-1 0
-3.727605965988451E-2 0
2.2251295550794165E-2 0
-1.4746726013705802E-2 0
2.778104159813884E-2 0
-1.126094298956958E-2 0
2.0334267335771747E-2 0
8.866382484817902E-3 0
-9.740324046406028E-3 0
2.0561287345217397E-2 0
-2.4504820843413686E-2 0
-3.1121866973754443E-2 0
3.0519416840712278E-2 0
3.0519416840712344E-2 0
-3.114156098347647E-2 0
-2.4415396778606074E-2 0
2.033158482401752E-2 0
-9.270305967424636E-3 0
7.99620013358845E-3 0
2.185266052059518E-2 0
-1.3797540715432455E-2 0
3.169073069496331E-2 0
-2.0381110480206476E-2 0
2.82517034128183E-2 0
-4.213569581647916E-2 0
8.204693863399453E-3 0
-1.2202365461102325E-3 0
6.023818833438795E-3 0
-5.623518019980454E-4 0
3.881983259261943E-3 0
1.6506896303401682E-3 0
-1.4984062522520481E-3 0
4.245875931397265E-3 0
-7.63250138199151E-3 0
8.04355689396144E-4 0
-3.3323790848200667E-3 0
-8.632706678156911E-3 0
2.9825424452300012E-3 0
5.590675510213936E-3 0
5.8908247265641684E-3 0
3.658001311238677E-3 0
-7.607871795394545E-3 0
-2.46567563541332E-3 0
1.3080235275422156E-3 0
-7.741701933274255E-3 0
4.557492039428782E-3 0
-1.8520656986872588E-3 0
1.8339787310557095E-3 0
3.7999422486022444E-3 0
-6.54805504214378E-4 0
-3.727605965988452E-2 0
6.03407361711578E-1 0
-2.7065644587212973E-2 0
1.622052637559822E-2 0
-1.0568004549690705E-2 0
2.051100699107323E-2 0
-7.89426846338038E-3 0
1.5308754180686274E-2 0
7.074008805869666E-3 0
-6.277261536925813E-3 0
1.578898730755244E-2 0
-1.7520972070593895E-2 0
-2.4011967199762754E-2 0
2.2631113010134544E-2 0
2.1081050724835744E-2 0
-2.3598117002485382E-2 0
-1.848838980837079E-2 0
1.4351569423888039E-2 0
-7.063117181317661E-3 0
5.544628377674969E-3 0
1.595631968297358E-2 0
-1.0514559794509565E-2 0
2.33672350318763E-2 0
-1.4347797186298554E-2 0
1.8543697368590833E-2 0
-7.775613298623091E-4 0
6.024503393699109E-3 0
-1.1957918777894046E-3 0
6.05131370106465E-3 0
-5.356619566755147E-4 0
3.902996152445939E-3 0
1.6552664357387145E-3 0
-1.5306363409155917E-3 0
4.115324922167913E-3 0
-7.882990250778453E-3 0
4.347521525189343E-4 0
-3.0159924849928192E-3 0
-8.612036742808334E-3 0
2.7677699023749957E-3 0
5.281944844176255E-3 0
5.5761083499067865E-3 0
3.0463167570107348E-3 0
-7.755563793726941E-3 0
-2.636550799842828E-3 0
1.3605657361568065E-3 0
-7.94216282286762E-3 0
4.770226598634078E-3 0
-2.141367244902101E-3 0
2.0535088099269453E-3 0
3.875390322686656E-3 0
2.2251295550794175E-2 0
-2.7065644587213E-2 0
6.035553482821744E-1 0
-2.687695927907191E-2 0
1.6450516616315317E-2 0
-1.0286091119057122E-2 0
2.0866225082870046E-2 0
-7.449182972334372E-3 0
1.5810290699654252E-2 0
7.4473324098922105E-3 0
-6.735467090739799E-3 0
1.4751289950943497E-2 0
-1.932774507833439E-2 0
-2.473209420843196E-2 0
2.1215758003671592E-2 0
2.111621728530897E-2 0
-2.361334641578419E-2 0
-1.8563963539368504E-2 0
1.4349866959872988E-2 0
-7.26051018563243E-3 0
5.421156863758411E-3 0
1.5950426195984854E-2 0
-1.0940491410480594E-2 0
2.3054165178710555E-2 0
-1.2922378119509588E-2 0
5.3462678454255005E-3 0
-5.601320904593115E-4 0
6.053679851896524E-3 0
-1.1654577753089938E-3 0
6.080796877726193E-3 0
-5.084204052721438E-4 0
3.924161578367409E-3 0
1.6637374941997631E-3 0
-1.5546180088033136E-3 0
4.082886249044762E-3 0
-7.919065391913225E-3 0
5.941581307631368E-4 0
-3.1584554977250063E-3 0
-8.834883193928328E-3 0
2.706308091066516E-3 0
5.125623638134488E-3 0
5.102235901545674E-3 0
2.7155513837383103E-3 0
-7.907298014534237E-3 0
-2.775626802230589E-3 0
1.4422610530509341E-3 0
-8.18302373804693E-3 0
5.056965366196797E-3 0
-2.359021923705604E-3 0
2.05132539796148E-3 0
-1.4746726013705812E-2 0
1.622052637559824E-2 0
-2.6876959279071876E-2 0
6.037810848097005E-1 0
-2.6611412792360654E-2 0
1.676825644715675E-2 0
-9.899737562125761E-3 0
2.1320628820786048E-2 0
-6.98349099068552E-3 0
1.615312642654668E-2 0
7.557262724683077E-3 0
-6.523107843789807E-3 0
1.579012661351504E-2 0
-1.9195199334153028E-2 0
-2.3447865016821445E-2 0
2.068624897746099E-2 0
2.0546906800883755E-2 0
-2.3577711710887843E-2 0
-1.870908688011105E-2 0
1.4522806383912405E-2 0
-7.5576669763806E-3 0
5.630403306265483E-3 0
1.578000185974271E-2 0
-1.0353355435110307E-2 0
2.2244534777661428E-2 0
2.247912136255839E-3 0
3.8860335993605335E-3 0
-5.304510942496027E-4 0
6.0837072806602145E-3 0
-1.132428164592335E-3 0
6.122554710895874E-3 0
-4.4950516523555294E-4 0
4.0114261717477985E-3 0
1.7990465200305944E-3 0
-1.3615295124535332E-3 0
4.285773826142472E-3 0
-7.947786950159517E-3 0
4.650648430050794E-4 0
-2.9584835441007714E-3 0
-8.191013071970751E-3 0
2.4485345800735825E-3 0
4.7271776885639835E-3 0
4.804558182338218E-3 0
2.561959737544342E-3 0
-7.988038340760253E-3 0
-2.8571901147390693E-3 0
1.5370201752219696E-3 0
-8.402739167997672E-3 0
5.1698389557117965E-3 0
-2.070926536969076E-3 0
2.7781041598138864E-2 0
-1.0568004549690695E-2 0
1.645051661631531E-2 0
-2.6611412792360678E-2 0
6.040864724692083E-1 0
-2.625084453767391E-2 0
1.72051051181033E-2 0
-9.375494896647898E-3 0
2.1976387913544882E-2 0
-6.163499194027034E-3 0
1.780958743633173E-2 0
8.893623786141211E-3 0
-6.548518155172904E-3 0
1.601544233331948E-2 0
-1.9219364628864623E-2 0
-2.4883752117323344E-2 0
2.024236796228286E-2 0
2.0250358500969984E-2 0
-2.346081381050055E-2 0
-1.896496699015032E-2 0
1.4899788926832582E-2 0
-8.146313757957735E-3 0
6.2144651375612096E-3 0
1.4981694640855381E-2 0
-9.17832357346396E-3 0
-2.0317954204155707E-3 0
1.6558854881178055E-3 0
3.9093881911337E-3 0
-5.055762193066603E-4 0
6.121021542870602E-3 0
-1.0666891485772475E-3 0
6.237395999346946E-3 0
-2.6439182490971237E-4 0
4.298613466637822E-3 0
2.155750068964255E-3 0
-9.210274455513984E-4 0
4.388016908947116E-3 0
-8.322268324451796E-3 0
8.259976470059851E-4 0
-3.0941615911782845E-3 0
-8.774510550238148E-3 0
2.1704840606883895E-3 0
4.563794565788954E-3 0
4.67660740609607E-3 0
2.553805389865275E-3 0
-8.055915174767581E-3 0
-2.8165425630732877E-3 0
1.5994262240681975E-3 0
-8.331613202003886E-3 0
4.899455665538029E-3 0
-1.1260942989569603E-2 0
2.0511006991073225E-2 0
-1.0286091119057117E-2 0
1.6768256447156755E-2 0
-2.6250844537673894E-2 0
6.045160598626096E-1 0
-2.571361612103729E-2 0
1.7880283490427425E-2 0
-8.490953664976486E-3 0
2.3043746028908418E-2 0
-5.0599859227167645E-3 0
1.7651698896236235E-2 0
8.843260437755494E-3 0
-6.417114275811145E-3 0
1.4514786801009432E-2 0
-1.9355228268933704E-2 0
-2.4457122904181085E-2 0
2.0249704132740357E-2 0
2.0161275467539062E-2 0
-2.3288854420780273E-2 0
-1.9324775084829025E-2 0
1.551794309414683E-2 0
-8.979044543409894E-3 0
7.26008409335335E-3 0
1.5020168070691144E-2 0
5.883332308939542E-3 0
-1.4920489506091575E-3 0
1.660224400831232E-3 0
3.919601454002002E-3 0
-4.641519041295671E-4 0
6.221809884339309E-3 0
-8.81119680969764E-4 0
6.522246959873706E-3 0
1.3100178641503008E-4 0
4.726307558014649E-3 0
2.4502901360564074E-3 0
-1.1388377804552204E-3 0
4.413172840736508E-3 0
-8.130254247691012E-3 0
6.061088406922208E-4 0
-3.3321775924095506E-3 0
-8.78911836559463E-3 0
2.0896919431847537E-3 0
4.574099832127438E-3 0
4.607217870985405E-3 0
2.6772127345896764E-3 0
-8.198505503070492E-3 0
-2.5761867176633036E-3 0
1.3119446506793793E-3 0
-8.074633337915861E-3 0
2.0334267335771754E-2 0
-7.894268463380398E-3 0
2.086622508287005E-2 0
-9.899737562125753E-3 0
1.7205105118103296E-2 0
-2.571361612103729E-2 0
6.052092447392741E-1 0
-2.4837067437803527E-2 0
1.8937973870741864E-2 0
-7.422376151881913E-3 0
2.388006926682273E-2 0
-4.868780095595563E-3 0
1.8415593999351557E-2 0
8.481577992261319E-3 0
-7.018983599075903E-3 0
1.3769265750422458E-2 0
-1.9461208430639653E-2 0
-2.4460466806522873E-2 0
2.0253885489189872E-2 0
2.0116517487572923E-2 0
-2.316652648159756E-2 0
-1.963811544626058E-2 0
1.6180918677936862E-2 0
-9.552589994800617E-3 0
7.539080048883782E-3 0
-1.0307677746222009E-2 0
4.257950497119555E-3 0
-1.5268884259295034E-3 0
1.6414810881714094E-3 0
3.965782310777454E-3 0
-3.1465258972928885E-4 0
6.489513840865644E-3 0
-5.058710478930899E-4 0
6.983922187312125E-3 0
5.783781159386168E-4 0
5.120373927528355E-3 0
2.474606021305588E-3 0
-1.2601142295619848E-3 0
4.587624360759722E-3 0
-8.041610397723014E-3 0
1.1042598994557297E-4 0
-3.4558658842539316E-3 0
-8.79781606429776E-3 0
2.1131019730012907E-3 0
4.635912989330267E-3 0
4.585820494491073E-3 0
2.9318001258047946E-3 0
-8.3758199189584E-3 0
-2.153493427952352E-3 0
1.0645675959833373E-3 0
8.866382484817897E-3 0
1.530875418068628E-2 0
-7.449182972334382E-3 0
2.132062882078605E-2 0
-9.375494896647884E-3 0
1.788028349042742E-2 0
-2.4837067437803537E-2 0
6.063042088957941E-1 0
-2.3573423843932084E-2 0
2.013397725240127E-2 0
-6.386521247282129E-3 0
2.440335448988494E-2 0
-5.166583820305304E-3 0
1.791658503400295E-2 0
6.7465777786297225E-3 0
-8.286829957245197E-3 0
1.3236877528323995E-2 0
-1.97479841805413E-2 0
-2.4450625345323974E-2 0
2.012822316580066E-2 0
2.0303897365981215E-2 0
-2.3348316892457678E-2 0
-1.964651423573671E-2 0
1.610638092063671E-2 0
-8.733045857170354E-3 0
1.533464843524861E-3 0
-7.585639651590263E-3 0
4.131746305810946E-3 0
-1.6125253512988178E-3 0
1.6954875645558264E-3 0
4.195635905490087E-3 0
5.768531842781869E-5 0
6.9538007006945905E-3 0
5.021334624293044E-6 0
7.428007657859963E-3 0
9.037170764536974E-4 0
5.018043440911564E-3 0
2.425950128911422E-3 0
-1.2599026968232627E-3 0
3.909785801572587E-3 0
-8.422422688639904E-3 0
7.983480062037949E-5 0
-3.4580029362942994E-3 0
-8.783028798839588E-3 0
2.1696362056255495E-3 0
4.733682176488449E-3 0
4.68191710618825E-3 0
3.2812469156911594E-3 0
-8.464880285853514E-3 0
-2.2291303967574005E-3 0
-9.74032404640602E-3 0
7.0740088058696615E-3 0
1.581029069965426E-2 0
-6.983490990685528E-3 0
2.1976387913544893E-2 0
-8.49095366497648E-3 0
1.8937973870741885E-2 0
-2.3573423843932118E-2 0
6.078301114315477E-1 0
-2.1919850236815232E-2 0
2.1432849096842066E-2 0
-5.884753193720498E-3 0
2.5681456267620785E-2 0
-5.806574991279594E-3 0
1.5567249825814757E-2 0
5.2251094062459895E-3 0
-9.347081597847246E-3 0
1.2860355773127712E-2 0
-1.9844244690460384E-2 0
-2.4222690795259478E-2 0
1.984144669590677E-2 0
2.081620311234639E-2 0
-2.3934247503311804E-2 0
-1.8808185404616717E-2 0
1.5556743267596592E-2 0
-3.4312613805312546E-3 0
9.323765059904833E-4 0
-7.83279903822189E-3 0
3.977815087325954E-3 0
-1.5213688640732465E-3 0
2.0218990376854626E-3 0
4.638462908454318E-3 0
5.502058758790993E-4 0
7.458590679313777E-3 0
3.9309504930834836E-4 0
7.584876870176783E-3 0
6.741493005199672E-4 0
5.068717621197787E-3 0
2.453524396912791E-3 0
-1.4540648444698581E-3 0
3.6072693184413937E-3 0
-8.501499810923829E-3 0
3.929009383041905E-5 0
-3.3964877790399308E-3 0
-8.753282387391302E-3 0
2.3543670171911357E-3 0
4.883348505716768E-3 0
5.052417307649201E-3 0
3.3214706266435482E-3 0
-8.379231816830762E-3 0
2.0561287345217397E-2 0
-6.277261536925825E-3 0
7.447332409892207E-3 0
1.6153126426546687E-2 0
-6.163499194027044E-3 0
2.3043746028908407E-2 0
-7.422376151881913E-3 0
2.0133977252401288E-2 0
-2.1919850236815235E-2 0
6.101247033514109E-1 0
-1.9819813531286874E-2 0
2.251438845233689E-2 0
-5.972118782294045E-3 0
2.503048781184734E-2 0
-7.396890855006208E-3 0
1.2950979024113738E-2 0
3.7530655313638243E-3 0
-9.400631580174857E-3 0
1.3363010332639891E-2 0
-1.968130307565883E-2 0
-2.4078445698573845E-2 0
1.955922355434104E-2 0
2.184064060622147E-2 0
-2.527036873001118E-2 0
-1.870178124603452E-2 0
-1.086798218618408E-2 0
-2.9803809137734145E-3 0
5.09432325540156E-4 0
-8.127710012445602E-3 0
4.154389890213336E-3 0
-1.017297165150783E-3 0
2.3990450302536085E-3 0
5.1532520111789585E-3 0
1.0315432132107466E-3 0
7.818448816856931E-3 0
6.112335065523002E-4 0
7.332457037335211E-3 0
5.966379952213077E-4 0
5.3804953967267815E-3 0
2.2088374917117134E-3 0
-1.9933126584342304E-3 0
3.3794935920530007E-3 0
-8.553192241277478E-3 0
6.39466960135791E-5 0
-3.2334030655669565E-3 0
-8.774743803948387E-3 0
2.7261862732996254E-3 0
5.150143132808375E-3 0
5.671190843157073E-3 0
3.4225110279119545E-3 0
-2.450482084341368E-2 0
1.5788987307552432E-2 0
-6.735467090739808E-3 0
7.5572627246830735E-3 0
1.7809587436331733E-2 0
-5.059985922716776E-3 0
2.388006926682274E-2 0
-6.38652124728212E-3 0
2.1432849096842056E-2 0
-1.981981353128691E-2 0
6.141835333234361E-1 0
-1.696714760846353E-2 0
2.4285335568802986E-2 0
-5.437855247240595E-3 0
2.0298086737764676E-2 0
-1.1531633027549603E-2 0
1.2923681981652134E-2 0
5.292274191994565E-3 0
-8.389417063812256E-3 0
1.3877220398063494E-2 0
-1.9419697344436444E-2 0
-2.488581601768065E-2 0
2.0348884037331132E-2 0
2.2056709602736816E-2 0
-2.546911850134008E-2 0
4.07447557700388E-3 0
-8.312895565165615E-3 0
-3.021331187792185E-3 0
4.4412706474334106E-4 0
-7.840281072838705E-3 0
4.4364367711408085E-3 0
-1.0902367936792168E-3 0
2.586226940354036E-3 0
5.204325999339774E-3 0
1.1032491512621132E-3 0
8.051394315459485E-3 0
5.365040443895318E-4 0
7.967735754828177E-3 0
1.0519584745881396E-3 0
4.695080036343936E-3 0
1.4997363773139303E-3 0
-1.907765914828902E-3 0
3.7627728547418556E-3 0
-8.197063532721946E-3 0
5.817982212827798E-4 0
-3.1096406848808273E-3 0
-8.423112692852527E-3 0
3.048450623529107E-3 0
5.1289117456275604E-3 0
5.927430579403477E-3 0
-3.1121866973754443E-2 0
-1.7520972070593888E-2 0
1.47512899509435E-2 0
-6.523107843789813E-3 0
8.893623786141206E-3 0
1.7651698896236228E-2 0
-4.868780095595573E-3 0
2.4403354489884937E-2 0
-5.884753193720498E-3 0
2.2514388452336904E-2 0
-1.696714760846355E-2 0
6.147696809442861E-1 0
-1.7968074892957948E-2 0
2.657639567477544E-2 0
-7.237260355763345E-3 0
2.028505938402957E-2 0
-7.358253862210995E-3 0
1.5489630050077426E-2 0
6.8690524440822975E-3 0
-7.1659373490603135E-3 0
1.458096594166425E-2 0
-1.897947366281458E-2 0
-2.435485932305601E-2 0
2.2593689100134373E-2 0
2.147580722712038E-2 0
7.7439373917266244E-3 0
3.048392594809474E-3 0
-8.657657216280265E-3 0
-3.167503286811536E-3 0
6.20363810360073E-4 0
-8.241945457980517E-3 0
4.474320001875644E-3 0
-1.1850472878422102E-3 0
2.5234059528822478E-3 0
5.304818628626324E-3 0
1.2165384682491422E-3 0
8.429482480184514E-3 0
7.844492186943276E-4 0
8.64392901004203E-3 0
5.942663839675591E-4 0
4.742184151870406E-3 0
2.262051227999839E-3 0
-1.4361822218483256E-3 0
4.623436390248703E-3 0
-8.314073589176364E-3 0
8.27807010356379E-4 0
-3.0728728622142396E-3 0
-9.06252057597612E-3 0
3.1498475004408297E-3 0
5.652420304963615E-3 0
3.0519416840712275E-2 0
-2.401196719976275E-2 0
-1.9327745078334388E-2 0
1.579012661351505E-2 0
-6.548518155172905E-3 0
8.843260437755494E-3 0
1.8415593999351568E-2 0
-5.1665838203053035E-3 0
2.5681456267620785E-2 0
-5.97211878229404E-3 0
2.4285335568802986E-2 0
-1.796807489295794E-2 0
6.290190271153125E-1 0
-1.6550855568936877E-2 0
2.6575671798266684E-2 0
-5.4345683604794005E-3 0
2.501894403466712E-2 0
-5.768409937829863E-3 0
1.781117227849541E-2 0
8.715684082929989E-3 0
-6.815849388715194E-3 0
1.650066588459001E-2 0
-1.9164163446562747E-2 0
-2.563992396662726E-2 0
2.4521925144561002E-2 0
7.743937391726607E-3 0
5.524825360634295E-3 0
2.813390375847165E-3 0
-8.825835404841983E-3 0
-3.1137825114556502E-3 0
7.456747805346484E-4 0
-8.191401408830127E-3 0
4.512557419039942E-3 0
-1.3573585207940836E-3 0
2.2174233894842695E-3 0
4.76059492369896E-3 0
5.902117492318118E-4 0
8.643929010042024E-3 0
7.844492186943334E-4 0
8.424571891391905E-3 0
1.2388358478398406E-3 0
5.249539748843965E-3 0
2.6271550082457916E-3 0
-1.3499549812914923E-3 0
4.704201377236855E-3 0
-8.511174954718502E-3 0
8.510907845861788E-4 0
-3.1492394817065257E-3 0
-8.987609857809558E-3 0
3.444514425593381E-3 0
3.0519416840712344E-2 0
2.2631113010134547E-2 0
-2.473209420843195E-2 0
-1.919519933415303E-2 0
1.6015442333319477E-2 0
-6.417114275811147E-3 0
8.481577992261314E-3 0
1.7916585034002952E-2 0
-5.806574991279596E-3 0
2.5030487811847333E-2 0
-5.437855247240587E-3 0
2.657639567477544E-2 0
-1.6550855568936852E-2 0
6.290190271153125E-1 0
-1.7974252804357722E-2 0
2.4313387446363202E-2 0
-6.036096860914006E-3 0
2.5774476811075534E-2 0
-5.235700063563967E-3 0
1.833857927222774E-2 0
9.280223385611339E-3 0
-7.58843213598005E-3 0
1.7532184422102214E-2 0
-2.118126050411091E-2 0
-2.445741804236904E-2 0
4.068816588253801E-3 0
5.571020269796235E-3 0
5.287284262125237E-3 0
2.8563352297752637E-3 0
-8.298520243511524E-3 0
-3.1425824829582087E-3 0
5.575071481062951E-4 0
-8.1532310891629E-3 0
3.7235028991248857E-3 0
-1.8831646132893719E-3 0
1.489883903266449E-3 0
4.695031915819825E-3 0
1.0559798354932736E-3 0
7.962858439866178E-3 0
5.45032095994265E-4 0
8.029988858503541E-3 0
1.151542002943633E-3 0
5.1104798766585585E-3 0
2.751986729897427E-3 0
-1.3624959601777212E-3 0
4.849215162419019E-3 0
-8.39499642692707E-3 0
1.0290869440965555E-3 0
-3.425310921986977E-3 0
-8.625311789282537E-3 0
-3.1141560983476462E-2 0
2.108105072483574E-2 0
2.1215758003671602E-2 0
-2.344786501682143E-2 0
-1.9219364628864616E-2 0
1.4514786801009441E-2 0
-7.0189835990759E-3 0
6.7465777786297225E-3 0
1.556724982581475E-2 0
-7.396890855006193E-3 0
2.029808673776467E-2 0
-7.237260355763354E-3 0
2.657567179826669E-2 0
-1.7974252804357722E-2 0
6.148025071519443E-1 0
-1.7071775658383612E-2 0
2.2738640391416636E-2 0
-6.2575144755560785E-3 0
2.4906585111086166E-2 0
-5.410104311606192E-3 0
1.8014688390897732E-2 0
9.041375011630952E-3 0
-7.698640552464534E-3 0
1.669330537512289E-2 0
-1.9527664048879227E-2 0
-1.0842286566862083E-2 0
3.3059729164569814E-3 0
5.501424929623582E-3 0
5.334286091304444E-3 0
2.579924392632061E-3 0
-8.678236155623624E-3 0
-3.280929281754544E-3 0
7.75468727988507E-5 0
-8.550247263316796E-3 0
3.3736969997774373E-3 0
-1.9932385985946817E-3 0
2.2188921550189353E-3 0
5.362235710493641E-3 0
6.187842892165961E-4 0
7.310816770477562E-3 0
6.308611450294121E-4 0
7.794835726947928E-3 0
1.0740710834187147E-3 0
5.060805321717669E-3 0
2.5937457393128776E-3 0
-1.391771296532662E-3 0
4.783682165684821E-3 0
-9.033479988113149E-3 0
1.4266162831714439E-3 0
-3.5685064464417962E-3 0
-2.441539677860607E-2 0
-2.3598117002485385E-2 0
2.111621728530896E-2 0
2.0686248977460978E-2 0
-2.4883752117323348E-2 0
-1.9355228268933707E-2 0
1.3769265750422456E-2 0
-8.286829957245187E-3 0
5.225109406246006E-3 0
1.295097902411374E-2 0
-1.1531633027549615E-2 0
2.0285059384029573E-2 0
-5.434568360479428E-3 0
2.4313387446363206E-2 0
-1.7071775658383612E-2 0
6.144568955439443E-1 0
-2.03562702810263E-2 0
2.231010872121308E-2 0
-7.634011377031147E-3 0
2.5459505321432728E-2 0
-6.823971545707994E-3 0
1.9463921703822988E-2 0
6.597465353370381E-3 0
-6.744637473613284E-3 0
1.6824946801702927E-2 0
-3.493923798636399E-3 0
-7.73581938508867E-3 0
2.996133438572492E-3 0
5.207263829057602E-3 0
4.887002688042603E-3 0
2.3043236659917037E-3 0
-8.701281571926392E-3 0
-3.427691308504464E-3 0
4.9247203356365904E-5 0
-8.501501580306867E-3 0
3.612870441426109E-3 0
-1.479221587192978E-3 0
2.4977728592883606E-3 0
5.013818117555426E-3 0
7.229977568923855E-4 0
7.561458507125456E-3 0
3.839112196513801E-4 0
7.494765542923013E-3 0
5.138769107364431E-4 0
4.621626902148592E-3 0
2.1809869259884498E-3 0
-1.9337348651227875E-3 0
4.7770284400169664E-3 0
-8.822677548252012E-3 0
1.5025299613920867E-3 0
2.0331584824017507E-2 0
-1.8488389808370784E-2 0
-2.3613346415784185E-2 0
2.0546906800883755E-2 0
2.0242367962282848E-2 0
-2.445712290418108E-2 0
-1.9461208430639653E-2 0
1.3236877528323998E-2 0
-9.347081597847261E-3 0
3.7530655313637966E-3 0
1.2923681981652134E-2 0
-7.358253862211002E-3 0
2.5018944034667128E-2 0
-6.036096860914004E-3 0
2.2738640391416622E-2 0
-2.0356270281026254E-2 0
6.111158997636242E-1 0
-2.3489797595956128E-2 0
2.2344644143229443E-2 0
-1.02642525970751E-2 0
2.6416541741798142E-2 0
-9.818242632517777E-3 0
1.9536597217954515E-2 0
5.124497697566699E-3 0
-5.664366099047481E-3 0
1.6460112021608106E-3 0
-2.512666525306515E-3 0
-7.7719992333101515E-3 0
2.7735351270600753E-3 0
4.908143019795657E-3 0
4.666792773770096E-3 0
2.163022720560718E-3 0
-8.76769786053628E-3 0
-3.457990931055264E-3 0
6.988951680776514E-5 0
-8.424944096886936E-3 0
3.950165230665568E-3 0
-1.3379909973795384E-3 0
2.5289637837769964E-3 0
4.923087158991905E-3 0
9.458244907711637E-4 0
7.464161562623208E-3 0
-1.1701910139557824E-4 0
7.143371509901593E-3 0
-1.5427004396080242E-4 0
4.352561459073624E-3 0
1.7050517903650871E-3 0
-1.967288589489867E-3 0
4.770024099218801E-3 0
-8.394805731022132E-3 0
-9.27030596742463E-3 0
1.435156942388804E-2 0
-1.8563963539368497E-2 0
-2.3577711710887846E-2 0
2.0250358500970008E-2 0
2.0249704132740354E-2 0
-2.446046680652286E-2 0
-1.974798418054131E-2 0
1.2860355773127696E-2 0
-9.400631580174875E-3 0
5.292274191994559E-3 0
1.548963005007742E-2 0
-5.76840993782987E-3 0
2.5774476811075517E-2 0
-6.2575144755561E-3 0
2.2310108721213112E-2 0
-2.348979759595615E-2 0
6.102621273733495E-1 0
-2.6957580414895814E-2 0
2.3281214719298116E-2 0
-1.370764181834453E-2 0
2.7816925280989026E-2 0
-1.2973852126449291E-2 0
2.0718610685278138E-2 0
5.171476093759869E-3 0
-1.0472242615257383E-2 0
1.2961337104868262E-3 0
-2.640278292528927E-3 0
-7.885151362423005E-3 0
2.607564923736114E-3 0
4.726837138363848E-3 0
4.606810989730525E-3 0
2.1131037098109083E-3 0
-8.81318126690599E-3 0
-3.4247286556244676E-3 0
9.597745342656973E-5 0
-8.087422643772582E-3 0
4.69725639652174E-3 0
-1.4237749875645328E-3 0
2.64234606010292E-3 0
5.028773569194089E-3 0
5.421200393927501E-4 0
7.173520795937782E-3 0
-8.393956696746723E-4 0
6.930072255302162E-3 0
-8.04553572150053E-4 0
4.411639010295541E-3 0
1.3990328433803763E-3 0
-1.5666363372855224E-3 0
4.623801232527283E-3 0
7.99620013358844E-3 0
-7.063117181317661E-3 0
1.4349866959872982E-2 0
-1.8709086880111022E-2 0
-2.3460813810500542E-2 0
2.016127546753907E-2 0
2.025388548918986E-2 0
-2.445062534532397E-2 0
-1.9844244690460387E-2 0
1.3363010332639874E-2 0
-8.389417063812262E-3 0
6.869052444082291E-3 0
1.7811172278495407E-2 0
-5.2357000635639625E-3 0
2.490658511108615E-2 0
-7.634011377031143E-3 0
2.2344644143229397E-2 0
-2.695758041489579E-2 0
6.109905091885285E-1 0
-3.087040661186499E-2 0
2.5172023402712653E-2 0
-1.757679755736083E-2 0
2.9831122456496446E-2 0
-1.4601954449877042E-2 0
1.9613435129760187E-2 0
6.082588306159632E-3 0
-7.748283825096818E-3 0
1.3555825115523187E-3 0
-2.7709320397073965E-3 0
-7.973341011174178E-3 0
2.569432699661982E-3 0
4.607248438217708E-3 0
4.603186079449493E-3 0
2.0963959234862575E-3 0
-8.84092198849449E-3 0
-3.2830294621526306E-3 0
6.337060153976092E-4 0
-8.250981630756838E-3 0
4.641109418817335E-3 0
-1.4144044374790252E-3 0
2.643375238025179E-3 0
4.709258884817698E-3 0
-8.101581443574257E-5 0
6.9627775460658E-3 0
-1.514629060103321E-3 0
7.003128597001359E-3 0
-1.312751886660594E-3 0
4.690832562456892E-3 0
1.1686954130340223E-3 0
-1.462192540475864E-3 0
2.1852660520595188E-2 0
5.544628377674961E-3 0
-7.2605101856324196E-3 0
1.4522806383912411E-2 0
-1.8964966990150316E-2 0
-2.3288854420780297E-2 0
2.0116517487572927E-2 0
2.0128223165800672E-2 0
-2.4222690795259492E-2 0
-1.9681303075658844E-2 0
1.3877220398063498E-2 0
-7.165937349060309E-3 0
8.715684082929996E-3 0
1.8338579272227734E-2 0
-5.410104311606201E-3 0
2.5459505321432728E-2 0
-1.0264252597075089E-2 0
2.328121471929811E-2 0
-3.0870406611864937E-2 0
6.13098506139299E-1 0
-3.545960474759055E-2 0
2.8349265189686914E-2 0
-2.1476557055449E-2 0
3.0537167506160312E-2 0
-1.3150889629621295E-2 0
-2.2112997908146294E-3 0
4.552532660285561E-3 0
-7.948528384635334E-3 0
1.439271798677041E-3 0
-2.855717552394847E-3 0
-8.055966554106316E-3 0
2.66158382176489E-3 0
4.535528312820997E-3 0
4.630517377704375E-3 0
2.2199877007796284E-3 0
-8.873935809658137E-3 0
-3.066359017858132E-3 0
9.053689219826234E-4 0
-8.588736866344742E-3 0
4.8059324175682505E-3 0
-1.292574396757751E-3 0
2.3153542977786268E-3 0
4.4557477594467975E-3 0
-7.54293460416825E-4 0
7.018799527212483E-3 0
-2.0992282720456628E-3 0
7.3294684235112855E-3 0
-1.77481233018579E-3 0
4.940653263702728E-3 0
1.342650927244702E-3 0
-1.3797540715432457E-2 0
1.59563196829736E-2 0
5.421156863758408E-3 0
-7.557666976380606E-3 0
1.4899788926832578E-2 0
-1.9324775084829018E-2 0
-2.3166526481597546E-2 0
2.030389736598122E-2 0
1.9841446695906772E-2 0
-2.407844569857388E-2 0
-1.941969734443644E-2 0
1.458096594166425E-2 0
-6.8158493887151865E-3 0
9.280223385611325E-3 0
1.8014688390897732E-2 0
-6.8239715457079795E-3 0
2.641654174179812E-2 0
-1.3707641818344515E-2 0
2.5172023402712636E-2 0
-3.545960474759053E-2 0
6.170265619576363E-1 0
-4.1187791666927584E-2 0
3.269053607945205E-2 0
-2.36126423254716E-2 0
2.841743936532385E-2 0
2.311034377215236E-3 0
-1.856331264947847E-3 0
4.7649935935897385E-3 0
-8.185794521330718E-3 0
1.5370890608030743E-3 0
-2.818012504398283E-3 0
-8.213088736972544E-3 0
2.886244922037025E-3 0
4.5787699521711E-3 0
4.724648625953722E-3 0
2.5995152708651807E-3 0
-8.308560531077402E-3 0
-2.9142138957652165E-3 0
6.924318181371431E-4 0
-8.509549800368683E-3 0
4.91035866990106E-3 0
-1.7750484403134745E-3 0
1.8082232986027257E-3 0
4.45715755585333E-3 0
-1.2981201144359109E-3 0
7.330879132145606E-3 0
-2.615912953224934E-3 0
7.738982632081532E-3 0
-1.9888887460632566E-3 0
4.7845531848684855E-3 0
3.1690730694963316E-2 0
-1.0514559794509574E-2 0
1.5950426195984857E-2 0
5.630403306265487E-3 0
-8.146313757957742E-3 0
1.5517943094146853E-2 0
-1.963811544626057E-2 0
-2.334831689245769E-2 0
2.081620311234638E-2 0
1.9559223554341063E-2 0
-2.488581601768066E-2 0
-1.897947366281458E-2 0
1.650066588459001E-2 0
-7.588432135980036E-3 0
9.04137501163094E-3 0
1.9463921703822974E-2 0
-9.818242632517767E-3 0
2.7816925280989006E-2 0
-1.757679755736083E-2 0
2.8349265189686914E-2 0
-4.118779166692758E-2 0
6.231320436332793E-1 0
-4.823440688742119E-2 0
3.5202284207319134E-2 0
-2.0912148141133617E-2 0
5.565240445938936E-3 0
1.8319223452473356E-3 0
-2.1437268391662893E-3 0
5.056833251554132E-3 0
-8.399921678598696E-3 0
1.602170353261946E-3 0
-2.5808696864845024E-3 0
-8.398300007883521E-3 0
3.2225439357589395E-3 0
4.945403071678259E-3 0
4.936281970525358E-3 0
2.892552863451668E-3 0
-9.073701866583484E-3 0
-3.1380581910991534E-3 0
1.1849806955073613E-3 0
-8.81960062378448E-3 0
4.883998554670391E-3 0
-1.9085076833164278E-3 0
1.4214011188224513E-3 0
4.695652379477287E-3 0
-1.777703265375404E-3 0
7.736305396036557E-3 0
-3.1244221302113243E-3 0
7.903111429777105E-3 0
-1.6259507167556999E-3 0
-2.038111048020649E-2 0
2.3367235031876314E-2 0
-1.0940491410480615E-2 0
1.5780001859742706E-2 0
6.214465137561223E-3 0
-8.979044543409906E-3 0
1.618091867793686E-2 0
-1.9646514235736712E-2 0
-2.393424750331182E-2 0
2.1840640606221495E-2 0
2.034888403733114E-2 0
-2.4354859323056016E-2 0
-1.9164163446562753E-2 0
1.7532184422102207E-2 0
-7.698640552464536E-3 0
6.5974653533703706E-3 0
1.9536597217954504E-2 0
-1.2973852126449295E-2 0
2.9831122456496422E-2 0
-2.147655705544899E-2 0
3.269053607945205E-2 0
-4.823440688742123E-2 0
6.311907406056811E-1 0
-5.348599363541955E-2 0
3.178554433800096E-2 0
-1.2421639980886513E-3 0
3.799165392169985E-3 0
2.053521340128764E-3 0
-2.3565420381674537E-3 0
5.175161217961625E-3 0
-8.325088245262067E-3 0
1.3170780367364225E-3 0
-2.149414423832258E-3 0
-8.447470323950391E-3 0
3.373775073499899E-3 0
5.748854686202183E-3 0
5.124511467297549E-3 0
3.103538674567791E-3 0
-8.941301031936542E-3 0
-3.420909904280885E-3 0
1.34894908286111E-3 0
-8.874973838065035E-3 0
4.752599635494238E-3 0
-1.570694339504023E-3 0
1.1635362112180135E-3 0
4.9341550526016565E-3 0
-1.9942328603283375E-3 0
7.900637599410893E-3 0
-3.0538673430197784E-3 0
7.51476225427305E-3 0
2.8251703412818317E-2 0
-1.4347797186298592E-2 0
2.3054165178710565E-2 0
-1.0353355435110302E-2 0
1.4981694640855374E-2 0
7.2600840933533615E-3 0
-9.552589994800628E-3 0
1.6106380920636706E-2 0
-1.8808185404616717E-2 0
-2.527036873001119E-2 0
2.205670960273682E-2 0
2.2593689100134373E-2 0
-2.5639923966627263E-2 0
-2.1181260504110903E-2 0
1.669330537512289E-2 0
-6.744637473613279E-3 0
5.124497697566706E-3 0
2.0718610685278128E-2 0
-1.4601954449877039E-2 0
3.053716750616033E-2 0
-2.3612642325471587E-2 0
3.520228420731913E-2 0
-5.3485993635419594E-2 0
6.327608674737915E-1 0
-4.554864714357795E-2 0
8.919830652287842E-3 0
-6.547769809067803E-4 0
3.8761014876629693E-3 0
2.0536144485343365E-3 0
-2.0667148619524264E-3 0
4.904861179285612E-3 0
-8.068027909522586E-3 0
1.0771152251807473E-3 0
-2.180230649114187E-3 0
-8.245268547874227E-3 0
3.7929026573277386E-3 0
6.265562222776734E-3 0
5.722940426308156E-3 0
3.3739943042488466E-3 0
-8.963436409308315E-3 0
-3.9389299665841815E-3 0
1.3686439589095788E-3 0
-8.44384176694537E-3 0
4.611448562279468E-3 0
-1.469035009577594E-3 0
1.3374950928596576E-3 0
4.780114103984351E-3 0
-1.628067106889486E-3 0
7.513953602999077E-3 0
-2.0847308466994375E-3 0
-4.213569581647916E-2 0
1.8543697368590854E-2 0
-1.2922378119509593E-2 0
2.2244534777661414E-2 0
-9.178323573463959E-3 0
1.5020168070691155E-2 0
7.539080048883805E-3 0
-8.733045857170349E-3 0
1.5556743267596585E-2 0
-1.8701781246034537E-2 0
-2.5469118501340083E-2 0
2.1475807227120395E-2 0
2.4521925144561005E-2 0
-2.445741804236904E-2 0
-1.9527664048879227E-2 0
1.682494680170294E-2 0
-5.6643660990474635E-3 0
5.171476093759875E-3 0
1.9613435129760187E-2 0
-1.3150889629621298E-2 0
2.841743936532385E-2 0
-2.091214814113362E-2 0
3.178554433800098E-2 0
-4.5548647143577974E-2 0
6.247464856885423E-1 0
