%%MatrixMarket matrix array complex general
%
50 50
4.633689897951203E-1 0
2.629842136149441E-3 0
-1.2990884262283852E-3 0
-8.549307027143436E-4 0
3.5907170792374614E-3 0
2.8610176607980634E-3 0
-7.571494188668618E-4 0
3.4261783543117446E-3 0
-3.6407890967441034E-3 0
-2.0246248240766243E-3 0
-4.709481326291784E-3 0
1.4934836720809088E-3 0
-3.872403183770683E-3 0
-3.8724031837705877E-3 0
1.4956786233668205E-3 0
-4.71944788306807E-3 0
-2.000410829170041E-3 0
-3.6838302808804356E-3 0
3.4883537913318143E-3 0
-8.327295189112093E-4 0
2.9390610387604052E-3 0
3.5213402659571105E-3 0
-7.656967092954018E-4 0
-1.4244623630284153E-3 0
2.8432238431262895E-3 0
4.863564981906691E-3 0
7.149796039435831E-3 0
5.676337029487951E-4 0
5.087292543863291E-3 0
-5.491510244887567E-3 0
4.1348841741545486E-3 0
3.6641771894242933E-3 0
-5.188081421888288E-3 0
1.2632830185207286E-2 0
-2.675431026379848E-3 0
-9.70927267189148E-3 0
-6.653878680658829E-3 0
1.0037167328027296E-2 0
1.0037167328027898E-2 0
-6.65501371615898E-3 0
-9.704118846463177E-3 0
-2.6860866067585547E-3 0
1.2642518260486202E-2 0
-5.17336180787418E-3 0
3.5769548615153758E-3 0
4.372346294790536E-3 0
-5.958446506326836E-3 0
5.827382444956144E-3 0
-2.2673047448177578E-4 0
7.90885209116788E-3 0
2.6298421361494453E-3 0
4.8050781947593185E-1 0
1.9024110432791044E-3 0
-9.667379539216414E-4 0
-6.537555531263116E-4 0
2.591093266830794E-3 0
2.0807598647255136E-3 0
-5.398503583507282E-4 0
2.4926240226124954E-3 0
-2.707363330511153E-3 0
-1.7220670403950264E-3 0
-3.6998428018310352E-3 0
1.0253370545373738E-3 0
-2.9806957433199154E-3 0
-2.580699588072335E-3 0
1.3806133540357748E-3 0
-3.363435113946093E-3 0
-1.3967536164458632E-3 0
-2.7016451616798786E-3 0
2.5986305966706914E-3 0
-6.291353584304706E-4 0
2.1706766783017805E-3 0
2.5953674149666733E-3 0
-6.753455142034715E-4 0
-9.724361140052732E-4 0
7.149796039434636E-3 0
2.687469456329058E-3 0
5.238107324381324E-3 0
4.034214600656998E-4 0
3.7173547400031572E-3 0
-3.9224874112964775E-3 0
3.1058402191533004E-3 0
2.7710450124789824E-3 0
-3.6068067649877053E-3 0
9.410235246916669E-3 0
-1.8968152620568131E-3 0
-7.1279210324650686E-3 0
-5.17804187712892E-3 0
7.182327205767558E-3 0
6.88748869862764E-3 0
-4.969330130750138E-3 0
-7.242811256221139E-3 0
-2.1434659038766604E-3 0
9.181556162613718E-3 0
-3.880919118157729E-3 0
2.6063107588764657E-3 0
3.160326589831671E-3 0
-4.409726108167203E-3 0
4.173146131345793E-3 0
1.1936671745767391E-4 0
-1.299088426228382E-3 0
1.902411043279126E-3 0
4.804962780820705E-1 0
1.8878591930502713E-3 0
-9.811239725779216E-4 0
-6.616795974278193E-4 0
2.597348392183189E-3 0
2.1058527670749015E-3 0
-5.033672521698587E-4 0
2.529231736590187E-3 0
-2.6930440363117088E-3 0
-1.6302588814606476E-3 0
-3.848192985413656E-3 0
9.949325454353354E-4 0
-2.7606857239914954E-3 0
-2.6729445157034908E-3 0
1.218821270698134E-3 0
-3.459378957806403E-3 0
-1.352135840917756E-3 0
-2.7481720726273335E-3 0
2.704567811102547E-3 0
-7.070024250196645E-4 0
2.2427912823749074E-3 0
2.5858521889386156E-3 0
-6.823215610336863E-4 0
5.676337029505889E-4 0
5.238860827333571E-3 0
2.720974743458717E-3 0
5.281981270178978E-3 0
4.5756470761076906E-4 0
3.7832287563450352E-3 0
-3.8414411698073202E-3 0
3.2039543378165466E-3 0
2.8758816962449595E-3 0
-3.5396422056319346E-3 0
9.293310037649086E-3 0
-2.020795071771559E-3 0
-7.651189023834602E-3 0
-5.437532438614453E-3 0
6.656693380107653E-3 0
6.707036891540592E-3 0
-5.155079790032593E-3 0
-7.157923819360582E-3 0
-2.229144874200294E-3 0
9.278616778797572E-3 0
-4.043577649314675E-3 0
2.7107474983282622E-3 0
3.0962159170347713E-3 0
-4.384532984194261E-3 0
4.07843228275403E-3 0
-8.549307027143404E-4 0
-9.66737953921672E-4 0
1.8878591930502505E-3 0
4.804790505100161E-1 0
1.8719633784763758E-3 0
-9.880331173045057E-4 0
-6.489720403891421E-4 0
2.6398903433857536E-3 0
2.1931681747989575E-3 0
-3.689049384866151E-4 0
2.703513235633581E-3 0
-2.646882204683155E-3 0
-1.8314407141069244E-3 0
-3.915705543558527E-3 0
8.451196901960277E-4 0
-2.9115722552671007E-3 0
-2.7938717583077745E-3 0
1.2383654098279114E-3 0
-3.4749491124672596E-3 0
-1.2365158904016767E-3 0
-2.8183506276397937E-3 0
2.8620291189664984E-3 0
-8.662043617432232E-4 0
2.400641735625655E-3 0
2.632979517005261E-3 0
5.087292543861655E-3 0
4.0580874753776E-4 0
5.284715936798432E-3 0
2.777511209096712E-3 0
5.348217658001733E-3 0
5.328998313172768E-4 0
3.8656993871564963E-3 0
-3.7595841749107893E-3 0
3.2607681432013586E-3 0
2.8753495493012062E-3 0
-3.5506870257508497E-3 0
9.316302164964018E-3 0
-2.1636511372980986E-3 0
-7.699764554320919E-3 0
-5.160212582014665E-3 0
6.607908513678712E-3 0
6.747919217557065E-3 0
-5.168834375281348E-3 0
-7.047617093770611E-3 0
-2.368530047865525E-3 0
9.464464955241579E-3 0
-4.335411502320555E-3 0
2.9743960080381012E-3 0
2.8096595083530046E-3 0
-4.21416756574769E-3 0
3.5907170792374636E-3 0
-6.537555531263091E-4 0
-9.811239725779131E-4 0
1.8719633784763142E-3 0
4.8046503813422753E-1 0
1.8662056223105515E-3 0
-9.758655244769029E-4 0
-6.088784496685261E-4 0
2.724318186487378E-3 0
2.300846868307921E-3 0
-2.692244441636934E-4 0
2.5348439462762554E-3 0
-3.0617878662897273E-3 0
-1.8280091748699649E-3 0
-3.7550643825723412E-3 0
8.14868648863453E-4 0
-2.7580026347774544E-3 0
-2.699472461923042E-3 0
1.3848623360847288E-3 0
-3.4597173120071547E-3 0
-1.1159050601841603E-3 0
-2.915621871837861E-3 0
3.00484207703247E-3 0
-9.59878242908492E-4 0
2.408571111647382E-3 0
-5.491510244886486E-3 0
3.721504081185982E-3 0
4.639738255676732E-4 0
5.353461875739975E-3 0
2.855170560890483E-3 0
5.4332804899803674E-3 0
6.228817552599473E-4 0
3.9563293991384035E-3 0
-3.6596536481261553E-3 0
3.399671053075067E-3 0
3.2037210958079233E-3 0
-3.267216838002275E-3 0
9.957888147896872E-3 0
-1.9931364660835484E-3 0
-7.339786056021329E-3 0
-5.236988506446042E-3 0
6.5682918065597595E-3 0
6.738717588276589E-3 0
-5.254436787585658E-3 0
-6.958427862156663E-3 0
-2.5684950482408983E-3 0
9.741799828000719E-3 0
-4.727009399894917E-3 0
3.345005833355613E-3 0
2.8331070175250032E-3 0
2.861017660798061E-3 0
2.59109326683081E-3 0
-6.616795974278442E-4 0
-9.880331173045215E-4 0
1.8662056223104945E-3 0
4.804608179460017E-1 0
1.8654666060116832E-3 0
-9.705676950597159E-4 0
-5.866350285369453E-4 0
2.7385525354970547E-3 0
2.2761900463272406E-3 0
-5.380210442545906E-4 0
2.4438039681782616E-3 0
-2.9084041306322653E-3 0
-1.669109133632777E-3 0
-3.655021576707043E-3 0
1.0701928561124227E-3 0
-2.525706869627016E-3 0
-2.561434121714106E-3 0
1.5024369221458573E-3 0
-3.4787152293834695E-3 0
-1.0462322580100075E-3 0
-3.022809674272175E-3 0
2.9951634020333904E-3 0
-7.80817785842868E-4 0
4.134884174154026E-3 0
-3.9177175835133065E-3 0
3.7921927345073E-3 0
5.439842181383156E-4 0
5.442074100119017E-3 0
2.9536202497316634E-3 0
5.543983612293689E-3 0
7.500686625582708E-4 0
4.129958207306363E-3 0
-3.4108644895836007E-3 0
3.8608690547917586E-3 0
3.46328040014044E-3 0
-3.453681786832336E-3 0
9.97357699534746E-3 0
-2.1676439608686853E-3 0
-7.54543631564122E-3 0
-5.1825784752074335E-3 0
6.5050221878591805E-3 0
6.727380444377997E-3 0
-5.334223735245804E-3 0
-6.884053281149737E-3 0
-2.7504431745323343E-3 0
1.0042520435075223E-2 0
-4.931698213662244E-3 0
3.268676568040939E-3 0
-7.571494188668596E-4 0
2.0807598647254867E-3 0
2.5973483921831997E-3 0
-6.489720403891356E-4 0
-9.758655244768959E-4 0
1.8654666060117016E-3 0
4.804336395900216E-1 0
1.8015543969534616E-3 0
-1.0641411610001078E-3 0
-7.117136609238536E-4 0
2.6629190496125464E-3 0
2.136510141427719E-3 0
-6.155261109353877E-4 0
2.620369959395254E-3 0
-2.762456593040264E-3 0
-1.5927634355951605E-3 0
-3.3275479485689458E-3 0
1.3365660390483528E-3 0
-2.34655535764667E-3 0
-2.5095020169707944E-3 0
1.5319886544641018E-3 0
-3.552121352060705E-3 0
-1.0327498304586824E-3 0
-3.011251168158228E-3 0
2.8358165739217514E-3 0
3.6641771894244933E-3 0
3.109432650703519E-3 0
-3.8326631219094613E-3 0
3.8803550667449093E-3 0
6.404170578690391E-4 0
5.55676895992456E-3 0
3.093898627263586E-3 0
5.713883254309212E-3 0
9.54873918169801E-4 0
4.339188159944401E-3 0
-3.3644415528715503E-3 0
3.6434354352079114E-3 0
3.4446352078857483E-3 0
-3.5797572382967988E-3 0
9.35656075727771E-3 0
-2.035421041548739E-3 0
-7.392142998120879E-3 0
-5.187229350077671E-3 0
6.480494733193959E-3 0
6.685297514032137E-3 0
-5.3408979578696515E-3 0
-6.887079145149769E-3 0
-2.807382272532465E-3 0
1.0006706988600043E-2 0
-4.517193477948002E-3 0
3.4261783543117446E-3 0
-5.398503583507055E-4 0
2.1058527670748993E-3 0
2.639890343385758E-3 0
-6.088784496685205E-4 0
-9.705676950597333E-4 0
1.8015543969534472E-3 0
4.802727201441028E-1 0
1.540634520139596E-3 0
-1.3991720471684661E-3 0
-1.0441887531152077E-3 0
2.342733075381575E-3 0
2.112924540882377E-3 0
-4.840580844801786E-4 0
2.7028228252905734E-3 0
-2.3476609608476667E-3 0
-1.1094513311577054E-3 0
-3.0466478468798887E-3 0
1.4769883265176311E-3 0
-2.3529532811689324E-3 0
-2.584127222288722E-3 0
1.4721016612628131E-3 0
-3.645361036059623E-3 0
-1.167960307072984E-3 0
-2.900453041938601E-3 0
-5.188081421888395E-3 0
2.772748908405826E-3 0
3.210678307040402E-3 0
-3.745261440088648E-3 0
3.977006911821437E-3 0
7.717678684100662E-4 0
5.728374291640538E-3 0
3.3000038853289925E-3 0
5.9425732509454255E-3 0
1.1697464355848546E-3 0
4.4356276525588005E-3 0
-3.2466706322788826E-3 0
3.920101398846546E-3 0
3.287678003290938E-3 0
-3.581974577518163E-3 0
9.103143511771716E-3 0
-2.271247842853395E-3 0
-7.442812590968451E-3 0
-5.2500838920037495E-3 0
6.503247067819263E-3 0
6.639612668493412E-3 0
-5.208169969412588E-3 0
-7.034280843260628E-3 0
-2.3926534467250023E-3 0
9.766386975996763E-3 0
-3.6407890967441025E-3 0
2.4926240226124854E-3 0
-5.033672521698598E-4 0
2.1931681747989523E-3 0
2.7243181864873723E-3 0
-5.866350285369392E-4 0
-1.0641411610000998E-3 0
1.5406345201395876E-3 0
4.798186243968353E-1 0
9.380427644691461E-4 0
-2.06365647891049E-3 0
-1.4787006282677905E-3 0
2.4198685860805065E-3 0
2.337416149229633E-3 0
4.5673476755704754E-5 0
3.347971605927564E-3 0
-1.8894117947676197E-3 0
-8.639153586148567E-4 0
-3.075212741588332E-3 0
1.3772822212495086E-3 0
-2.5423816950419947E-3 0
-2.7567194549316166E-3 0
1.4251318682152495E-3 0
-3.7145548541911077E-3 0
-1.36346084008159E-3 0
1.2632830185207423E-2 0
-3.6053830167394776E-3 0
2.8869033775099037E-3 0
3.276526935712857E-3 0
-3.648462358971034E-3 0
4.1417762170168106E-3 0
9.714652365170161E-4 0
5.9534027650064445E-3 0
3.58287540112511E-3 0
6.2924481072788915E-3 0
1.6356510914033572E-3 0
4.855082922316804E-3 0
-3.33194127756468E-3 0
3.6779436361195797E-3 0
2.606418869132226E-3 0
-4.187589095610401E-3 0
8.769416702392728E-3 0
-2.4120936162885355E-3 0
-7.417780890987124E-3 0
-5.2703926010404965E-3 0
6.578002313436417E-3 0
6.643948864330316E-3 0
-5.062770899837038E-3 0
-7.36057123593193E-3 0
-2.129488985786797E-3 0
-2.0246248240766277E-3 0
-2.7073633305111466E-3 0
2.5292317365901928E-3 0
-3.6890493848661224E-4 0
2.30084686830792E-3 0
2.738552535497048E-3 0
-7.117136609238619E-4 0
-1.399172047168473E-3 0
9.380427644691367E-4 0
4.789842274341361E-1 0
1.2537112855286151E-4 0
-2.366704554839696E-3 0
-1.4358661248640998E-3 0
2.6650035109598135E-3 0
2.7782940790503003E-3 0
6.675657045859134E-4 0
3.6787746233477117E-3 0
-1.9220915354673357E-3 0
-1.0411018524145992E-3 0
-3.426082817489036E-3 0
1.1754619607989506E-3 0
-2.8238736742284385E-3 0
-2.861116552741186E-3 0
1.4186638779518203E-3 0
-3.6572190837245977E-3 0
-2.675431026380054E-3 0
9.410171996231276E-3 0
-3.508796523045795E-3 0
2.9120248991411136E-3 0
3.4041531971833413E-3 0
-3.411923587278695E-3 0
4.356931252532927E-3 0
1.1793378065190897E-3 0
6.264235172252054E-3 0
4.003601103248444E-3 0
6.813846912425483E-3 0
1.963685934943689E-3 0
5.143528690573688E-3 0
-3.5560230954825678E-3 0
2.944825565316621E-3 0
2.217947884880115E-3 0
-4.283732054410681E-3 0
8.836853643428545E-3 0
-2.3586839006518E-3 0
-7.301651618113201E-3 0
-5.292373101694181E-3 0
6.621384939618438E-3 0
6.791049402359083E-3 0
-5.378833193664312E-3 0
-7.533545049542E-3 0
-4.709481326291792E-3 0
-1.7220670403950253E-3 0
-2.693044036311709E-3 0
2.7035132356335845E-3 0
-2.6922444416369306E-4 0
2.2761900463272376E-3 0
2.662919049612551E-3 0
-1.0441887531151943E-3 0
-2.063656478910487E-3 0
1.253711285528132E-4 0
4.776759719343527E-1 0
-6.605751706563183E-4 0
-2.422309854473632E-3 0
-1.3198614634313476E-3 0
3.607618783943646E-3 0
3.920609931901446E-3 0
6.442492727726684E-4 0
3.4056508749062252E-3 0
-2.4490918484244874E-3 0
-1.44033096063519E-3 0
-3.8586584834021114E-3 0
1.0520996749225821E-3 0
-3.1072350638069934E-3 0
-2.5963408103070475E-3 0
1.4463335605467836E-3 0
-9.709272671891275E-3 0
-1.9480813769966604E-3 0
9.389978210506572E-3 0
-3.4389073285361334E-3 0
3.20650920725828E-3 0
3.8597856791312444E-3 0
-3.291204143173466E-3 0
4.426180924009457E-3 0
1.489570273450393E-3 0
6.627887546013189E-3 0
4.540128711465672E-3 0
7.447120230893823E-3 0
2.383694407393275E-3 0
4.736748727113129E-3 0
-4.012704860789776E-3 0
2.7423885611287994E-3 0
2.4374425626722965E-3 0
-4.119681479046208E-3 0
9.24211282838158E-3 0
-2.2912384672875924E-3 0
-7.317780340830674E-3 0
-5.479879517531711E-3 0
6.605216764269088E-3 0
6.730918393895158E-3 0
-5.297051952067832E-3 0
1.4934836720808988E-3 0
-3.6998428018310404E-3 0
-1.630258881460656E-3 0
-2.646882204683162E-3 0
2.534843946276256E-3 0
-5.38021044254584E-4 0
2.1365101414277145E-3 0
2.342733075381562E-3 0
-1.4787006282677853E-3 0
-2.3667045548396663E-3 0
-6.605751706563162E-4 0
4.7770551149200435E-1 0
-2.5298326067067057E-4 0
-2.6850543021508092E-3 0
-5.792083187187825E-4 0
3.5965104166096164E-3 0
2.811226569795082E-3 0
-2.04542955065896E-5 0
2.814855953843375E-3 0
-2.9355011015427465E-3 0
-1.4167320389816308E-3 0
-4.097747838363846E-3 0
1.2603939858331539E-3 0
-3.1326625499703623E-3 0
-2.5603146821768724E-3 0
-6.653878680659035E-3 0
-7.2306780366103015E-3 0
-1.9080793877413306E-3 0
9.460867189314942E-3 0
-3.176448173008021E-3 0
3.5884317120392665E-3 0
3.8580427554022073E-3 0
-3.241859352936583E-3 0
4.556362673142112E-3 0
1.5130473703338619E-3 0
6.5170811724474245E-3 0
4.679518650177291E-3 0
8.010934142581189E-3 0
1.9650719485682215E-3 0
4.7813166339588315E-3 0
-3.0648419502365353E-3 0
3.3438162267634295E-3 0
3.005788370475232E-3 0
-3.7504458599052944E-3 0
9.38120718837006E-3 0
-2.622010275222338E-3 0
-6.999900359659407E-3 0
-5.855288578570225E-3 0
7.095400829581771E-3 0
7.1118809934884435E-3 0
-3.872403183770683E-3 0
1.0253370545373736E-3 0
-3.8481929854136585E-3 0
-1.831440714106919E-3 0
-3.0617878662897234E-3 0
2.443803968178263E-3 0
-6.155261109353844E-4 0
2.11292454088238E-3 0
2.4198685860805057E-3 0
-1.4358661248640994E-3 0
-2.4223098544736347E-3 0
-2.529832606706752E-4 0
4.7533877798831986E-1 0
-6.547420614079284E-4 0
-2.687984321643075E-3 0
-1.3065572020512317E-3 0
2.6316371518458515E-3 0
2.401899970139992E-3 0
-5.932439848303619E-4 0
2.791737028791846E-3 0
-3.1662224540743075E-3 0
-1.4619142841748468E-3 0
-4.415423972436764E-3 0
1.5144094956864266E-3 0
-3.386170823580205E-3 0
1.0037167328027544E-2 0
-5.23411374067714E-3 0
-7.609309679990876E-3 0
-2.099279407707805E-3 0
1.0052264205127814E-2 0
-3.3240012266157718E-3 0
3.6047884258319333E-3 0
3.937589753977575E-3 0
-3.523960764983793E-3 0
4.839450923184874E-3 0
1.5176988144543894E-3 0
7.347731551384079E-3 0
5.681485962487362E-3 0
8.29395317693473E-3 0
2.6327425026778477E-3 0
5.582456759992407E-3 0
-3.201147731683787E-3 0
3.772187999728854E-3 0
3.433318329651542E-3 0
-3.986476176258606E-3 0
1.01857960217927E-2 0
-2.515222437372977E-3 0
-7.217400190419053E-3 0
-6.068041119077287E-3 0
7.918698282501342E-3 0
-3.87240318377059E-3 0
-2.980695743319913E-3 0
9.949325454353356E-4 0
-3.915705543558533E-3 0
-1.8280091748699668E-3 0
-2.9084041306322666E-3 0
2.6203699593952503E-3 0
-4.8405808448017675E-4 0
2.3374161492296344E-3 0
2.6650035109598135E-3 0
-1.319861463431354E-3 0
-2.6850543021508153E-3 0
-6.547420614078816E-4 0
4.7533877798831986E-1 0
-2.5066775943738786E-4 0
-2.4328237891812323E-3 0
-1.4093188262030744E-3 0
2.367703708072752E-3 0
2.203492717196861E-3 0
-7.615585216697342E-4 0
2.667183686894196E-3 0
-3.378174389467652E-3 0
-1.404553283909271E-3 0
-4.289549791994501E-3 0
1.2881996395791983E-3 0
1.0037167328027626E-2 0
7.238399069315868E-3 0
-5.479411782458336E-3 0
-7.764136283911075E-3 0
-2.0875125233145793E-3 0
9.843896435130933E-3 0
-3.739910456243E-3 0
3.2701896481599126E-3 0
3.869963123538685E-3 0
-3.2519453280937674E-3 0
5.602744320052008E-3 0
2.628274539765317E-3 0
8.293953176934727E-3 0
5.681485962487362E-3 0
7.344739857381175E-3 0
1.5312831196404586E-3 0
4.804494719349555E-3 0
-3.452140754212144E-3 0
3.805280952842358E-3 0
3.8294360181687333E-3 0
-3.668034749135109E-3 0
1.050291763410817E-2 0
-2.5222045670172805E-3 0
-7.390212474202815E-3 0
-5.56213112825017E-3 0
1.4956786233668118E-3 0
-2.5806995880723344E-3 0
-2.7606857239914928E-3 0
8.451196901960257E-4 0
-3.7550643825723412E-3 0
-1.669109133632777E-3 0
-2.762456593040266E-3 0
2.7028228252905695E-3 0
4.567347675570594E-5 0
2.778294079050303E-3 0
3.6076187839436413E-3 0
-5.792083187187894E-4 0
-2.6879843216430707E-3 0
-2.5066775943738493E-4 0
4.77701829239742E-1 0
-6.499973205346594E-4 0
-2.39133889044593E-3 0
-1.4311922852049761E-3 0
2.260712256589146E-3 0
2.268833069932261E-3 0
-7.41213660650348E-4 0
2.8227876196507662E-3 0
-3.009982514621284E-3 0
-1.2933063375214179E-3 0
-4.047814943458754E-3 0
-6.655013716158805E-3 0
6.990244378601423E-3 0
6.543979307592724E-3 0
-5.3047762844441E-3 0
-7.430556457832032E-3 0
-2.2927973508795217E-3 0
9.141953244415519E-3 0
-3.5867866299294916E-3 0
2.905138849669345E-3 0
3.3954650956590743E-3 0
-3.0826653613692393E-3 0
4.781330941446806E-3 0
1.969554493771018E-3 0
8.00792786628801E-3 0
4.681354135809048E-3 0
6.514418347133522E-3 0
1.5215801111290888E-3 0
4.529713271415607E-3 0
-3.171115195811119E-3 0
3.696927820710065E-3 0
3.910472003122349E-3 0
-3.7246903361769007E-3 0
1.0198823398535194E-2 0
-2.5701395033598663E-3 0
-7.34723137853389E-3 0
-4.719447883068079E-3 0
1.3806133540357707E-3 0
-2.6729445157034903E-3 0
-2.9115722552670985E-3 0
8.148686488634548E-4 0
-3.6550215767070463E-3 0
-1.592763435595165E-3 0
-2.347660960847661E-3 0
3.347971605927589E-3 0
6.675657045859158E-4 0
3.920609931901453E-3 0
3.596510416609614E-3 0
-1.306557202051224E-3 0
-2.4328237891812314E-3 0
-6.499973205346681E-4 0
4.776558304356269E-1 0
1.6610271374809514E-4 0
-2.1362485216378743E-3 0
-9.294737703963107E-4 0
2.495393786927317E-3 0
2.5139162697430705E-3 0
-5.960737453412283E-4 0
3.1297769292016413E-3 0
-3.112750829868194E-3 0
-1.6213077129273881E-3 0
-9.704118846463187E-3 0
-4.9180580031806245E-3 0
6.610361401318986E-3 0
6.496122814049903E-3 0
-5.2397687315800445E-3 0
-7.544343503953119E-3 0
-2.1086575764048296E-3 0
9.112593750575054E-3 0
-4.041507057861972E-3 0
2.403902866215977E-3 0
2.7423865588093476E-3 0
-3.994945974312059E-3 0
4.71639495363693E-3 0
2.3973449259959575E-3 0
7.4445228121831405E-3 0
4.526170242819131E-3 0
6.660229753500913E-3 0
1.445542816595142E-3 0
4.462606682430629E-3 0
-3.279654458232529E-3 0
3.717619890704374E-3 0
3.5982985517699104E-3 0
-4.25472561641149E-3 0
1.0442771801655088E-2 0
-2.5913048418421043E-3 0
-2.000410829170042E-3 0
-3.3634351139460927E-3 0
1.2188212706981305E-3 0
-2.793871758307779E-3 0
-2.7580026347774583E-3 0
1.0701928561124231E-3 0
-3.3275479485689384E-3 0
-1.1094513311577037E-3 0
-1.88941179476762E-3 0
3.6787746233477078E-3 0
6.442492727726653E-4 0
2.811226569795078E-3 0
2.631637151845851E-3 0
-1.409318826203074E-3 0
-2.391338890445918E-3 0
1.6610271374806386E-4 0
4.7890782969357265E-1 0
1.0673516370142198E-3 0
-1.589615817366033E-3 0
-4.6234168376553465E-4 0
2.4323147235757567E-3 0
2.667377271895247E-3 0
-8.294996279034142E-4 0
3.007629797002884E-3 0
-3.0898119686744445E-3 0
-2.686086606758688E-3 0
-7.242762550696458E-3 0
-5.185907755400954E-3 0
6.711258373063578E-3 0
6.563790498701149E-3 0
-5.181542318699496E-3 0
-7.409888283265889E-3 0
-2.280847722791316E-3 0
8.797626893679975E-3 0
-4.2837204512399495E-3 0
2.2514886532997006E-3 0
2.8933297142943694E-3 0
-3.505070465625362E-3 0
5.1084174532911465E-3 0
1.972067589339734E-3 0
6.846179277756464E-3 0
3.92292000243894E-3 0
6.390494490493094E-3 0
1.0150642849519483E-3 0
4.544888449626737E-3 0
-3.5823994076572747E-3 0
3.4728968112462703E-3 0
3.1447489108027194E-3 0
-4.038714154024178E-3 0
1.0234041282775908E-2 0
-3.6838302808804356E-3 0
-1.3967536164458609E-3 0
-3.459378957806398E-3 0
1.2383654098279179E-3 0
-2.6994724619230416E-3 0
-2.525706869627016E-3 0
1.3365660390483463E-3 0
-3.046647846879891E-3 0
-8.639153586148707E-4 0
-1.9220915354673414E-3 0
3.4056508749062218E-3 0
-2.0454295506593656E-5 0
2.401899970139992E-3 0
2.3677037080727503E-3 0
-1.4311922852049662E-3 0
-2.136248521637878E-3 0
1.0673516370142344E-3 0
4.796045428801619E-1 0
1.850572354627052E-3 0
-1.455022225933628E-3 0
-1.4879947075992794E-4 0
2.281287385110348E-3 0
2.633380369505232E-3 0
-8.913540773586822E-4 0
2.814888606486967E-3 0
1.2642518260486377E-2 0
-2.144864108408447E-3 0
-7.168976693555232E-3 0
-5.1846185663708836E-3 0
6.727560381925954E-3 0
6.493245036846272E-3 0
-5.203816438293882E-3 0
-7.453627075428419E-3 0
-2.4120898291351096E-3 0
8.808615374586104E-3 0
-4.265774934637074E-3 0
2.70682652444914E-3 0
3.5799218651537106E-3 0
-3.259874619637003E-3 0
4.828674848743894E-3 0
1.5916374922549854E-3 0
6.418730015106777E-3 0
3.3807546837653435E-3 0
6.2268093514966875E-3 0
6.201510715698267E-4 0
4.578913779805227E-3 0
-4.1514670970774865E-3 0
3.718817334866551E-3 0
2.661113883361679E-3 0
-3.7423785636276127E-3 0
3.4883537913318143E-3 0
-2.701645161679877E-3 0
-1.3521358409177577E-3 0
-3.4749491124672536E-3 0
1.38486233608473E-3 0
-2.561434121714105E-3 0
-2.346555357646673E-3 0
1.47698832651762E-3 0
-3.0752127415883354E-3 0
-1.0411018524146044E-3 0
-2.4490918484244895E-3 0
2.8148559538433726E-3 0
-5.932439848303629E-4 0
2.2034927171968584E-3 0
2.2607122565891508E-3 0
-9.29473770396316E-4 0
-1.5896158173660186E-3 0
1.850572354627048E-3 0
4.7981525621883775E-1 0
2.397266653510229E-3 0
-1.6501620258708286E-3 0
5.5973589497972295E-5 0
2.076567364291211E-3 0
2.5015629502864196E-3 0
-7.42343960866E-4 0
-5.1733618078743816E-3 0
9.179816012430286E-3 0
-2.235824414556591E-3 0
-7.061904075320429E-3 0
-5.275163920118701E-3 0
6.705621631084873E-3 0
6.465996631845817E-3 0
-5.250105382285448E-3 0
-7.406953373642226E-3 0
-2.349040813825396E-3 0
9.2326967109938E-3 0
-3.745365647735245E-3 0
3.4510794426468473E-3 0
3.787519839847049E-3 0
-3.1761961807394053E-3 0
4.472026308661155E-3 0
1.0054126922925178E-3 0
6.2159968593961746E-3 0
2.9357964856182987E-3 0
6.190708708587796E-3 0
1.7484516404275504E-4 0
4.7423077288266426E-3 0
-4.6543274768931124E-3 0
4.031783248911358E-3 0
2.538568359586345E-3 0
-8.327295189112071E-4 0
2.598630596670692E-3 0
-2.7481720726273326E-3 0
-1.2365158904016785E-3 0
-3.459717312007152E-3 0
1.5024369221458551E-3 0
-2.5095020169707953E-3 0
-2.352953281168943E-3 0
1.3772822212495073E-3 0
-3.4260828174890417E-3 0
-1.44033096063519E-3 0
-2.935501101542739E-3 0
2.791737028791845E-3 0
-7.615585216697362E-4 0
2.2688330699322575E-3 0
2.4953937869273165E-3 0
-4.623416837655286E-4 0
-1.4550222259336089E-3 0
2.397266653510183E-3 0
4.796026141187992E-1 0
2.896192964967144E-3 0
-2.0644006948337995E-3 0
2.679072473612631E-4 0
2.0462381064064662E-3 0
2.393309066579077E-3 0
3.57695486151562E-3 0
-3.8844679365074397E-3 0
9.269785213848159E-3 0
-2.3832278197763236E-3 0
-6.975900788514422E-3 0
-5.346934053387573E-3 0
6.68530812920935E-3 0
6.517763954975218E-3 0
-5.253807558556678E-3 0
-7.284009640950972E-3 0
-2.2180792559160886E-3 0
9.595650114207594E-3 0
-3.826474331815311E-3 0
3.669434173725436E-3 0
3.4824847009896423E-3 0
-3.3528127892451663E-3 0
4.527244266845805E-3 0
6.035702807441162E-4 0
6.176184734217079E-3 0
2.539141088817902E-3 0
6.23729297430769E-3 0
-2.2115677297053133E-4 0
4.976192258670559E-3 0
-4.943795791138684E-3 0
3.8654401429672977E-3 0
2.939061038760403E-3 0
-6.291353584304755E-4 0
2.7045678111025486E-3 0
-2.8183506276397902E-3 0
-1.1159050601841562E-3 0
-3.4787152293834695E-3 0
1.5319886544640988E-3 0
-2.584127222288722E-3 0
-2.542381695041994E-3 0
1.1754619607989524E-3 0
-3.8586584834021144E-3 0
-1.4167320389816287E-3 0
-3.166222454074306E-3 0
2.667183686894194E-3 0
-7.412136606503503E-4 0
2.5139162697430753E-3 0
2.4323147235757532E-3 0
-1.4879947075991453E-4 0
-1.650162025870852E-3 0
2.896192964967147E-3 0
4.790234927486792E-1 0
3.5962422805477855E-3 0
-2.6618640707496044E-3 0
4.887422677034175E-4 0
2.2978308494321542E-3 0
4.372346294790266E-3 0
2.6014953023247383E-3 0
-4.0524866529471106E-3 0
9.453421653532891E-3 0
-2.5773590514335965E-3 0
-6.8841374057528135E-3 0
-5.328126953654053E-3 0
6.66128609033975E-3 0
6.589844240474824E-3 0
-5.293252410465937E-3 0
-7.3187201345438595E-3 0
-2.497042868779564E-3 0
1.0315260522108733E-2 0
-3.797499249451142E-3 0
3.7855025211113048E-3 0
3.7185691088950654E-3 0
-3.5815430124083504E-3 0
4.567112664257461E-3 0
1.5311219429905296E-4 0
6.22459695684288E-3 0
2.1901050028834755E-3 0
6.340457300263761E-3 0
-5.45409020537908E-4 0
4.887721449272489E-3 0
-4.7809582658598524E-3 0
3.52134026595711E-3 0
2.170676678301783E-3 0
-7.070024250196647E-4 0
2.8620291189664976E-3 0
-2.9156218718378603E-3 0
-1.0462322580100073E-3 0
-3.5521213520607114E-3 0
1.4721016612628116E-3 0
-2.7567194549316105E-3 0
-2.8238736742284376E-3 0
1.0520996749225793E-3 0
-4.097747838363847E-3 0
-1.461914284174843E-3 0
-3.3781743894676533E-3 0
2.8227876196507662E-3 0
-5.960737453412273E-4 0
2.667377271895244E-3 0
2.2812873851103545E-3 0
5.5973589497952684E-5 0
-2.0644006948337605E-3 0
3.596242280547772E-3 0
4.7806167496163415E-1 0
4.588239152945041E-3 0
-3.1607232648017034E-3 0
2.048682366000835E-4 0
-5.958446506326557E-3 0
3.156219380935846E-3 0
2.7042915732413604E-3 0
-4.340686413470252E-3 0
9.741873345731497E-3 0
-2.7415640228246494E-3 0
-6.869526920311071E-3 0
-5.187473001561745E-3 0
6.655092859930763E-3 0
6.62559997652002E-3 0
-5.477217162022173E-3 0
-6.908218876573478E-3 0
-2.4199608952434138E-3 0
1.0407656091978603E-2 0
-3.8163735580777946E-3 0
3.595644091651132E-3 0
3.468662588879002E-3 0
-4.16257697291435E-3 0
4.721561095269648E-3 0
-2.3864659241370193E-4 0
6.331507765454791E-3 0
1.8700736459145162E-3 0
6.476875972430112E-3 0
-6.319765732449857E-4 0
4.664330719304214E-3 0
-7.656967092954023E-4 0
2.5953674149666707E-3 0
2.2427912823749065E-3 0
-8.662043617432213E-4 0
3.0048420770324683E-3 0
-3.022809674272175E-3 0
-1.0327498304586824E-3 0
-3.6453610360596207E-3 0
1.4251318682152484E-3 0
-2.861116552741187E-3 0
-3.1072350638069956E-3 0
1.2603939858331528E-3 0
-4.415423972436768E-3 0
-1.4045532839092665E-3 0
-3.009982514621284E-3 0
3.129776929201644E-3 0
-8.294996279034231E-4 0
2.6333803695052396E-3 0
2.0765673642912075E-3 0
2.6790724736124673E-4 0
-2.6618640707495684E-3 0
4.588239152945013E-3 0
4.76816357395412E-1 0
5.432018400213909E-3 0
-2.6711955086779664E-3 0
5.827382444955971E-3 0
-4.412149712864933E-3 0
3.0935045040032944E-3 0
2.9743931069911053E-3 0
-4.721859627752544E-3 0
1.0053503718426652E-2 0
-2.7927557151380495E-3 0
-7.019969134109089E-3 0
-5.047005432239019E-3 0
6.827802097184912E-3 0
6.715801965233996E-3 0
-5.714120587248011E-3 0
-7.155299632610361E-3 0
-2.584305124825966E-3 0
1.0057656701293265E-2 0
-4.3653166933721975E-3 0
3.1080104150187976E-3 0
3.7030270090299094E-3 0
-4.668604208581176E-3 0
4.9615245683542935E-3 0
-5.563522553023079E-4 0
6.471696439200049E-3 0
1.5183988190704835E-3 0
6.501678992076213E-3 0
-4.789751521874666E-4 0
-1.4244623630284112E-3 0
-6.75345514203467E-4 0
2.585852188938616E-3 0
2.4006417356256487E-3 0
-9.598782429084943E-4 0
2.995163402033387E-3 0
-3.0112511681582243E-3 0
-1.1679603070729905E-3 0
-3.714554854191109E-3 0
1.4186638779518255E-3 0
-2.5963408103070475E-3 0
-3.1326625499703666E-3 0
1.5144094956864257E-3 0
-4.289549791994502E-3 0
-1.2933063375214205E-3 0
-3.112750829868195E-3 0
3.0076297970028786E-3 0
-8.91354077358678E-4 0
2.5015629502864256E-3 0
2.04623810640644E-3 0
4.887422677034517E-4 0
-3.1607232648017225E-3 0
5.432018400213898E-3 0
4.7636743743461385E-1 0
4.156836941794785E-3 0
-2.267304744817219E-4 0
4.172420117125908E-3 0
-4.384527236379213E-3 0
2.812437051538933E-3 0
3.351530199583496E-3 0
-4.922618504315787E-3 0
1.0015529462683108E-2 0
-2.3859230534742973E-3 0
-7.3494568733524415E-3 0
-5.347630584852328E-3 0
6.830761419110861E-3 0
7.21417740546638E-3 0
-6.022799312800707E-3 0
-7.435454280479386E-3 0
-2.6889143954554207E-3 0
1.0342921130903284E-2 0
-4.06989825084004E-3 0
2.6499669276253014E-3 0
4.0250992847960165E-3 0
-4.952674216122999E-3 0
4.878699283703371E-3 0
-6.385500705668544E-4 0
6.498926061359832E-3 0
1.6050750867315116E-3 0
6.381236261806923E-3 0
2.843223843126293E-3 0
-9.724361140052712E-4 0
-6.823215610336894E-4 0
2.6329795170052578E-3 0
2.4085711116473853E-3 0
-7.808177858428626E-4 0
2.835816573921747E-3 0
-2.9004530419386053E-3 0
-1.3634608400815884E-3 0
-3.6572190837245986E-3 0
1.4463335605467854E-3 0
-2.560314682176876E-3 0
-3.386170823580209E-3 0
1.288199639579201E-3 0
-4.047814943458752E-3 0
-1.6213077129273912E-3 0
-3.089811968674441E-3 0
2.814888606486965E-3 0
-7.423439608660047E-4 0
2.3933090665791052E-3 0
2.2978308494321195E-3 0
2.0486823660009426E-4 0
-2.6711955086779664E-3 0
4.156836941794812E-3 0
4.771588208617406E-1 0
7.908852091167902E-3 0
1.1935541654908534E-4 0
4.079217164174328E-3 0
-4.2116811374206635E-3 0
2.837419930890539E-3 0
3.273644596505675E-3 0
-4.513432182853027E-3 0
9.768180207823003E-3 0
-2.128061695895225E-3 0
-7.5339072927601706E-3 0
-5.353138074861024E-3 0
7.000026899035946E-3 0
7.857760434388484E-3 0
-5.501193280137308E-3 0
-7.235378726284154E-3 0
-2.53521217047728E-3 0
1.0234387683789991E-2 0
-3.7437780292645306E-3 0
2.5367356293396143E-3 0
3.861726377762117E-3 0
-4.785976029770576E-3 0
4.660063700588651E-3 0
-4.8150086033053267E-4 0
6.380480682018496E-3 0
2.4322362987659846E-3 0
4.8635649819066176E-3 0
7.149796039434629E-3 0
5.676337029505788E-4 0
5.087292543861642E-3 0
-5.491510244886488E-3 0
4.134884174154033E-3 0
3.664177189424494E-3 0
-5.188081421888389E-3 0
1.2632830185207417E-2 0
-2.6754310263800564E-3 0
-9.709272671891282E-3 0
-6.6538786806590354E-3 0
1.003716732802754E-2 0
1.0037167328027622E-2 0
-6.655013716158803E-3 0
-9.704118846463194E-3 0
-2.686086606758688E-3 0
1.2642518260486377E-2 0
-5.173361807874382E-3 0
3.576954861515626E-3 0
4.37234629479027E-3 0
-5.958446506326558E-3 0
5.827382444955959E-3 0
-2.2673047448172205E-4 0
7.908852091167894E-3 0
7.270294737038513E-1 0
-4.3794208263912913E-2 0
9.571260231941789E-3 0
7.423194434837135E-3 0
-1.9535306441149747E-2 0
-1.4327379533367593E-2 0
1.0839509604431351E-2 0
-2.493766703853949E-2 0
2.3275537709251733E-2 0
3.8487987066830806E-3 0
2.7782960766076344E-2 0
-1.7451944253740213E-2 0
2.068139704158052E-2 0
2.068139704158035E-2 0
-1.7470568090124684E-2 0
2.786752552334682E-2 0
3.6422460058888294E-3 0
2.364814976272873E-2 0
-2.5493870794630148E-2 0
1.156242135736238E-2 0
-1.5186665884357242E-2 0
-1.8549619656183357E-2 0
5.915417663625746E-3 0
1.1595872654235038E-2 0
-4.7261454598722386E-2 0
7.1497960394358295E-3 0
2.687469456329031E-3 0
5.238860827333569E-3 0
4.0580874753774705E-4 0
3.72150408118599E-3 0
-3.917717583513309E-3 0
3.1094326507035133E-3 0
2.772748908405833E-3 0
-3.605383016739482E-3 0
9.41017199623128E-3 0
-1.9480813769966589E-3 0
-7.230678036610293E-3 0
-5.234113740677136E-3 0
7.238399069315869E-3 0
6.990244378601418E-3 0
-4.918058003180626E-3 0
-7.242762550696449E-3 0
-2.144864108408455E-3 0
9.179816012430293E-3 0
-3.8844679365074354E-3 0
2.6014953023247387E-3 0
3.1562193809358415E-3 0
-4.412149712864936E-3 0
4.172420117125909E-3 0
1.1935541654907498E-4 0
-4.3794208263912913E-2 0
6.207672204302945E-1 0
-3.1872856301249496E-2 0
7.046783163156141E-3 0
5.540725623285839E-3 0
-1.4127456170068992E-2 0
-1.043860270152831E-2 0
7.823810516566587E-3 0
-1.8205135414883004E-2 0
1.7008044998952976E-2 0
3.4937644958223254E-3 0
2.1141571573361533E-2 0
-1.2921359216353803E-2 0
1.6000852573971328E-2 0
1.4315757774273267E-2 0
-1.3700602119788395E-2 0
2.02443003900706E-2 0
2.3649374261985653E-3 0
1.7431824914164264E-2 0
-1.892983348297578E-2 0
8.625274632868702E-3 0
-1.117509512224809E-2 0
-1.390300899632259E-2 0
5.593147355562359E-3 0
7.218842252671928E-3 0
5.676337029487937E-4 0
5.238107324381324E-3 0
2.720974743458683E-3 0
5.284715936798428E-3 0
4.639738255676753E-4 0
3.7921927345072864E-3 0
-3.832663121909447E-3 0
3.2106783070403977E-3 0
2.8869033775099E-3 0
-3.5087965230457853E-3 0
9.389978210506557E-3 0
-1.9080793877413167E-3 0
-7.609309679990875E-3 0
-5.479411782458337E-3 0
6.543979307592722E-3 0
6.610361401318988E-3 0
-5.185907755400958E-3 0
-7.168976693555225E-3 0
-2.2358244145565895E-3 0
9.269785213848162E-3 0
-4.0524866529471106E-3 0
2.7042915732413595E-3 0
3.093504504003285E-3 0
-4.384527236379218E-3 0
4.07921716417432E-3 0
9.571260231941771E-3 0
-3.187285630124951E-2 0
6.208112127371942E-1 0
-3.1819426929893924E-2 0
7.097037440770491E-3 0
5.563647359407727E-3 0
-1.4162433572320063E-2 0
-1.0551889383846444E-2 0
7.647023809603519E-3 0
-1.8398869440301505E-2 0
1.683076438681812E-2 0
3.239300426174993E-3 0
2.2294405279291416E-2 0
-1.2871178780942112E-2 0
1.5029495645436102E-2 0
1.4820580570162542E-2 0
-1.331861388881009E-2 0
2.0661079840304106E-2 0
1.9567135657126487E-3 0
1.7865012755977707E-2 0
-1.966227121075346E-2 0
9.285914840205434E-3 0
-1.1720199857223926E-2 0
-1.378554927372248E-2 0
5.756755437938802E-3 0
5.08729254386329E-3 0
4.034214600656829E-4 0
5.281981270178985E-3 0
2.7775112090967394E-3 0
5.353461875739922E-3 0
5.439842181383271E-4 0
3.8803550667449193E-3 0
-3.745261440088651E-3 0
3.2765269357128575E-3 0
2.912024899141123E-3 0
-3.438907328536144E-3 0
9.460867189314952E-3 0
-2.099279407707809E-3 0
-7.764136283911069E-3 0
-5.304776284444102E-3 0
6.496122814049908E-3 0
6.711258373063572E-3 0
-5.184618566370886E-3 0
-7.061904075320425E-3 0
-2.3832278197763296E-3 0
9.453421653532891E-3 0
-4.340686413470257E-3 0
2.9743931069911088E-3 0
2.8124370515389256E-3 0
-4.211681137420655E-3 0
7.423194434837135E-3 0
7.046783163156182E-3 0
-3.1819426929893924E-2 0
6.20871651064103E-1 0
-3.176736781827649E-2 0
7.111838607673271E-3 0
5.5023437450486485E-3 0
-1.4332440906063114E-2 0
-1.0863658948912853E-2 0
7.235303454065131E-3 0
-1.8699355976656753E-2 0
1.7175507548526363E-2 0
4.126140734667974E-3 0
2.2620839735906825E-2 0
-1.1969933733858273E-2 0
1.5132589258511159E-2 0
1.5036824138066117E-2 0
-1.3659785948344813E-2 0
2.087614163884354E-2 0
1.2269744546541783E-3 0
1.852296060315356E-2 0
-2.0772667790035598E-2 0
1.0461875076518188E-2 0
-1.2767632496810464E-2 0
-1.4066081456567488E-2 0
-5.4915102448875675E-3 0
3.7173547400031594E-3 0
4.575647076107686E-4 0
5.348217658001753E-3 0
2.855170560890527E-3 0
5.442074100118982E-3 0
6.404170578690412E-4 0
3.977006911821455E-3 0
-3.6484623589710437E-3 0
3.404153197183347E-3 0
3.206509207258276E-3 0
-3.1764481730080165E-3 0
1.005226420512781E-2 0
-2.0875125233145854E-3 0
-7.4305564578320375E-3 0
-5.239768731580041E-3 0
6.5637904987011384E-3 0
6.727560381925956E-3 0
-5.275163920118702E-3 0
-6.975900788514422E-3 0
-2.5773590514336113E-3 0
9.741873345731488E-3 0
-4.721859627752549E-3 0
3.351530199583493E-3 0
2.8374199308905334E-3 0
-1.953530644114975E-2 0
5.540725623285819E-3 0
7.097037440770539E-3 0
-3.176736781827649E-2 0
6.209129027681205E-1 0
-3.176029154295091E-2 0
7.051651699086516E-3 0
5.345865990288536E-3 0
-1.4616400663111387E-2 0
-1.1178765876673883E-2 0
7.007933187004272E-3 0
-1.822924298180349E-2 0
1.8899661308075532E-2 0
4.238296920590218E-3 0
2.155070832597438E-2 0
-1.186164564661246E-2 0
1.457295044301084E-2 0
1.4790158364354999E-2 0
-1.4365753473029876E-2 0
2.104664572107794E-2 0
4.3721839852087734E-4 0
1.9347545800486286E-2 0
-2.188768418943835E-2 0
1.1174955970317564E-2 0
-1.2588317822872569E-2 0
4.1348841741545486E-3 0
-3.922487411296481E-3 0
3.7832287563450417E-3 0
5.328998313172893E-4 0
5.4332804899803544E-3 0
2.9536202497316704E-3 0
5.556768959924555E-3 0
7.717678684100777E-4 0
4.141776217016808E-3 0
-3.411923587278701E-3 0
3.859785679131255E-3 0
3.5884317120392574E-3 0
-3.324001226615771E-3 0
9.843896435130929E-3 0
-2.2927973508795212E-3 0
-7.544343503953119E-3 0
-5.181542318699499E-3 0
6.4932450368462725E-3 0
6.705621631084875E-3 0
-5.346934053387575E-3 0
-6.884137405752815E-3 0
-2.7415640228246638E-3 0
1.0053503718426659E-2 0
-4.9226185043157854E-3 0
3.2736445965056717E-3 0
-1.4327379533367596E-2 0
-1.4127456170068988E-2 0
5.563647359407687E-3 0
7.111838607673263E-3 0
-3.1760291542950916E-2 0
6.209133796337509E-1 0
-3.1768671904185496E-2 0
7.028713223672298E-3 0
5.257665687792209E-3 0
-1.4737586526280327E-2 0
-1.136978720328487E-2 0
7.50225183526007E-3 0
-1.859192218653963E-2 0
1.8514744109701407E-2 0
3.910341641985922E-3 0
2.1269863100707314E-2 0
-1.2604587796058154E-2 0
1.3717171859377491E-2 0
1.439594284038727E-2 0
-1.4948368640094764E-2 0
2.134439361754439E-2 0
-1.3367085870618413E-4 0
2.0153951833611516E-2 0
-2.191242109967705E-2 0
9.945401533447308E-3 0
3.664177189424294E-3 0
3.105840219153307E-3 0
-3.84144116980732E-3 0
3.865699387156494E-3 0
6.228817552599419E-4 0
5.543983612293677E-3 0
3.0938986272636285E-3 0
5.728374291640495E-3 0
9.714652365170436E-4 0
4.35693125253292E-3 0
-3.291204143173467E-3 0
3.858042755402204E-3 0
3.6047884258319273E-3 0
-3.7399104562429917E-3 0
9.141953244415519E-3 0
-2.108657576404825E-3 0
-7.409888283265886E-3 0
-5.203816438293878E-3 0
6.465996631845814E-3 0
6.685308129209344E-3 0
-5.3281269536540506E-3 0
-6.869526920311058E-3 0
-2.7927557151380543E-3 0
1.001552946268311E-2 0
-4.513432182853032E-3 0
1.0839509604431358E-2 0
-1.0438602701528316E-2 0
-1.4162433572320053E-2 0
5.50234374504866E-3 0
7.051651699086535E-3 0
-3.176867190418544E-2 0
6.21016130831186E-1 0
-3.151248629119039E-2 0
7.379895879886973E-3 0
5.651032030890483E-3 0
-1.4736015703814253E-2 0
-1.0945531307615398E-2 0
8.33432162370503E-3 0
-1.9159712039575588E-2 0
1.7569624891551307E-2 0
3.563353166484102E-3 0
1.9893236784359798E-2 0
-1.3631325860914683E-2 0
1.2998776354611824E-2 0
1.4255118699014496E-2 0
-1.5185755621499288E-2 0
2.1806474836278088E-2 0
-4.1797795947453936E-4 0
1.992997318976862E-2 0
-2.0676243647392806E-2 0
-5.188081421888287E-3 0
2.7710450124789794E-3 0
3.203954337816533E-3 0
-3.7595841749108057E-3 0
3.956329399138396E-3 0
7.500686625582741E-4 0
5.713883254309186E-3 0
3.300003885329033E-3 0
5.953402765006414E-3 0
1.1793378065190988E-3 0
4.426180924009446E-3 0
-3.2418593529365816E-3 0
3.937589753977576E-3 0
3.2701896481599157E-3 0
-3.586786629929491E-3 0
9.112593750575054E-3 0
-2.280847722791317E-3 0
-7.4536270754284265E-3 0
-5.2501053822854565E-3 0
6.517763954975214E-3 0
6.661286090339751E-3 0
-5.187473001561737E-3 0
-7.01996913410909E-3 0
-2.385923053474305E-3 0
9.768180207823008E-3 0
-2.4937667038539477E-2 0
7.823810516566597E-3 0
-1.0551889383846453E-2 0
-1.433244090606312E-2 0
5.345865990288541E-3 0
7.028713223672279E-3 0
-3.151248629119041E-2 0
6.216818556949274E-1 0
-3.042971477586034E-2 0
8.75209294911376E-3 0
7.036333443550724E-3 0
-1.3216049132194124E-2 0
-1.0757445561183718E-2 0
7.828844263153589E-3 0
-1.9056593721728944E-2 0
1.57018705807183E-2 0
1.3176152350652334E-3 0
1.8686696363563675E-2 0
-1.427000769068311E-2 0
1.3052415777276467E-2 0
1.4571688408979617E-2 0
-1.5072129146633147E-2 0
2.2322712737347497E-2 0
3.1720657586632815E-4 0
1.8890120148972324E-2 0
1.263283018520729E-2 0
-3.606806764987701E-3 0
2.8758816962449634E-3 0
3.2607681432013686E-3 0
-3.6596536481261384E-3 0
4.12995820730637E-3 0
9.548739181698129E-4 0
5.942573250945385E-3 0
3.5828754011251276E-3 0
6.2642351722520554E-3 0
1.4895702734503944E-3 0
4.556362673142103E-3 0
-3.5239607649837847E-3 0
3.8699631235386786E-3 0
2.9051388496693408E-3 0
-4.041507057861968E-3 0
8.797626893679977E-3 0
-2.4120898291351187E-3 0
-7.406953373642232E-3 0
-5.253807558556678E-3 0
6.589844240474816E-3 0
6.655092859930759E-3 0
-5.047005432239013E-3 0
-7.349456873352438E-3 0
-2.128061695895228E-3 0
2.3275537709251736E-2 0
-1.8205135414883004E-2 0
7.647023809603527E-3 0
-1.0863658948912848E-2 0
-1.4616400663111404E-2 0
5.257665687792211E-3 0
7.37989587988698E-3 0
-3.0429714775860373E-2 0
6.236363920652503E-1 0
-2.7804669991580138E-2 0
1.1699135317059848E-2 0
8.869035941089001E-3 0
-1.3853649591850002E-2 0
-1.1666687430262716E-2 0
5.299324698053211E-3 0
-2.1952287303003564E-2 0
1.3668022385294623E-2 0
1.1857303757494917E-4 0
1.8915872480860914E-2 0
-1.3964751080859454E-2 0
1.3881385293274769E-2 0
1.517805271007757E-2 0
-1.5041915992179852E-2 0
2.2591964980594032E-2 0
1.6716515721584564E-3 0
-2.675431026379848E-3 0
9.41023524691666E-3 0
-3.5396422056319385E-3 0
2.8753495493012023E-3 0
3.399671053075057E-3 0
-3.4108644895836106E-3 0
4.339188159944392E-3 0
1.1697464355848687E-3 0
6.292448107278886E-3 0
4.003601103248437E-3 0
6.627887546013178E-3 0
1.513047370333884E-3 0
4.839450923184869E-3 0
-3.251945328093764E-3 0
3.395465095659069E-3 0
2.4039028662159773E-3 0
-4.2837204512399425E-3 0
8.808615374586104E-3 0
-2.349040813825394E-3 0
-7.284009640950965E-3 0
-5.293252410465936E-3 0
6.6255999765200205E-3 0
6.8278020971849086E-3 0
-5.347630584852334E-3 0
-7.533907292760173E-3 0
3.8487987066830897E-3 0
1.700804499895298E-2 0
-1.8398869440301516E-2 0
7.235303454065126E-3 0
-1.1178765876673888E-2 0
-1.473758652628034E-2 0
5.651032030890476E-3 0
8.752092949113768E-3 0
-2.7804669991580166E-2 0
6.274068217243451E-1 0
-2.4395021441283294E-2 0
1.2586648347418333E-2 0
8.70551713772406E-3 0
-1.4688262433491235E-2 0
-1.331194102305887E-2 0
2.593424473350944E-3 0
-2.3599391705258148E-2 0
1.3923721340432455E-2 0
7.80984155514926E-4 0
2.0669166373070678E-2 0
-1.3445212819951334E-2 0
1.5134140606592055E-2 0
1.5444141630230276E-2 0
-1.4703512765097676E-2 0
2.211420441040781E-2 0
-9.709272671891474E-3 0
-1.8968152620568164E-3 0
9.293310037649086E-3 0
-3.550687025750852E-3 0
3.203721095807931E-3 0
3.860869054791766E-3 0
-3.3644415528715525E-3 0
4.435627652558789E-3 0
1.6356510914033579E-3 0
6.813846912425487E-3 0
4.540128711465691E-3 0
6.517081172447408E-3 0
1.517698814454388E-3 0
5.602744320052012E-3 0
-3.0826653613692458E-3 0
2.742386558809347E-3 0
2.2514886532996976E-3 0
-4.2657749346370726E-3 0
9.232696710993794E-3 0
-2.2180792559160878E-3 0
-7.318720134543857E-3 0
-5.477217162022168E-3 0
6.7158019652340094E-3 0
6.830761419110865E-3 0
-5.3531380748610205E-3 0
2.778296076607639E-2 0
3.493764495822323E-3 0
1.6830764386818124E-2 0
-1.8699355976656746E-2 0
7.007933187004266E-3 0
-1.1369787203284881E-2 0
-1.4736015703814262E-2 0
7.036333443550727E-3 0
1.1699135317059843E-2 0
-2.4395021441283322E-2 0
6.337531192195786E-1 0
-2.0646953200026772E-2 0
1.2584123315632719E-2 0
8.778750631828397E-3 0
-1.918109922742917E-2 0
-1.9563341260806666E-2 0
2.774878322566174E-3 0
-2.2401197799741295E-2 0
1.6490234594391386E-2 0
2.3831669485886286E-3 0
2.2837422941709273E-2 0
-1.3673784370967512E-2 0
1.662624208834371E-2 0
1.4218620931984649E-2 0
-1.4356894696866272E-2 0
-6.6538786806588255E-3 0
-7.127921032465066E-3 0
-2.020795071771566E-3 0
9.316302164963998E-3 0
-3.267216838002285E-3 0
3.4632804001404273E-3 0
3.6434354352079083E-3 0
-3.246670632278877E-3 0
4.855082922316792E-3 0
1.963685934943697E-3 0
7.447120230893784E-3 0
4.67951865017732E-3 0
7.347731551384087E-3 0
2.6282745397653144E-3 0
4.781330941446804E-3 0
-3.994945974312073E-3 0
2.8933297142943685E-3 0
2.706826524449145E-3 0
-3.7453656477352453E-3 0
9.595650114207594E-3 0
-2.4970428687795692E-3 0
-6.908218876573483E-3 0
-5.714120587248009E-3 0
7.214177405466386E-3 0
7.000026899035945E-3 0
-1.7451944253740238E-2 0
2.1141571573361544E-2 0
3.239300426174995E-3 0
1.7175507548526352E-2 0
-1.8229242981803492E-2 0
7.502251835260074E-3 0
-1.0945531307615415E-2 0
-1.3216049132194147E-2 0
8.869035941089004E-3 0
1.2586648347418329E-2 0
-2.0646953200026755E-2 0
6.327080405164498E-1 0
-2.460651780787856E-2 0
1.488433062217202E-2 0
4.7778558632016604E-3 0
-1.909390251600998E-2 0
-1.3570047509967483E-2 0
5.8171811701488215E-3 0
-1.9932632615971918E-2 0
1.8918764492109733E-2 0
1.953048796357933E-3 0
2.418801497349618E-2 0
-1.5133502755909602E-2 0
1.783667188087905E-2 0
1.3888990075756317E-2 0
1.0037167328027296E-2 0
-5.17804187712893E-3 0
-7.651189023834606E-3 0
-2.1636511372981E-3 0
9.957888147896875E-3 0
-3.4536817868323338E-3 0
3.444635207885753E-3 0
3.920101398846538E-3 0
-3.331941277564674E-3 0
5.1435286905736856E-3 0
2.3836944073932723E-3 0
8.010934142581194E-3 0
5.6814859624873745E-3 0
8.293953176934783E-3 0
1.9695544937710146E-3 0
4.716394953636931E-3 0
-3.505070465625361E-3 0
3.5799218651537098E-3 0
3.4510794426468507E-3 0
-3.8264743318153047E-3 0
1.0315260522108731E-2 0
-2.419960895243418E-3 0
-7.155299632610358E-3 0
-6.022799312800719E-3 0
7.85776043438849E-3 0
2.068139704158052E-2 0
-1.2921359216353798E-2 0
2.229440527929143E-2 0
4.1261407346679674E-3 0
1.889966130807554E-2 0
-1.859192218653963E-2 0
8.334321623705034E-3 0
-1.0757445561183715E-2 0
-1.3853649591850016E-2 0
8.705517137724062E-3 0
1.2584123315632712E-2 0
-2.4606517807878564E-2 0
6.46954212974283E-1 0
-2.3542849474686194E-2 0
1.4907550663166926E-2 0
8.673316010840735E-3 0
-1.4423819143097786E-2 0
-1.2177841934818346E-2 0
8.69440115358396E-3 0
-2.0517606075666234E-2 0
2.0551980762333822E-2 0
1.3633843621539234E-3 0
2.648497851926412E-2 0
-1.6823048362134923E-2 0
1.870753101050271E-2 0
1.0037167328027901E-2 0
7.182327205767561E-3 0
-5.4375324386144504E-3 0
-7.699764554320913E-3 0
-1.9931364660835567E-3 0
9.973576995347457E-3 0
-3.579757238296801E-3 0
3.28767800329094E-3 0
3.6779436361195844E-3 0
-3.5560230954825704E-3 0
4.736748727113136E-3 0
1.9650719485682167E-3 0
8.293953176934769E-3 0
5.681485962487388E-3 0
8.007927866288019E-3 0
2.397344925995952E-3 0
5.1084174532911465E-3 0
-3.2598746196369987E-3 0
3.787519839847049E-3 0
3.6694341737254312E-3 0
-3.7974992494511314E-3 0
1.040765609197861E-2 0
-2.584305124825969E-3 0
-7.4354542804793864E-3 0
-5.501193280137317E-3 0
2.068139704158035E-2 0
1.600085257397132E-2 0
-1.2871178780942122E-2 0
2.2620839735906825E-2 0
4.238296920590223E-3 0
1.8514744109701418E-2 0
-1.9159712039575595E-2 0
7.828844263153589E-3 0
-1.1666687430262711E-2 0
-1.4688262433491231E-2 0
8.77875063182842E-3 0
1.4884330622172011E-2 0
-2.354284947468618E-2 0
6.46954212974283E-1 0
-2.4625288800512093E-2 0
1.2669356261358847E-2 0
8.490438033515731E-3 0
-1.3431648576002602E-2 0
-1.1488752912973453E-2 0
9.51206013827008E-3 0
-2.03943553409177E-2 0
2.145806902364681E-2 0
6.920412089833857E-4 0
2.5807927875721948E-2 0
-1.5259646612888061E-2 0
-6.655013716158976E-3 0
6.88748869862764E-3 0
6.6566933801076545E-3 0
-5.160212582014672E-3 0
-7.339786056021327E-3 0
-2.1676439608686888E-3 0
9.356560757277711E-3 0
-3.5819745775181587E-3 0
2.6064188691322355E-3 0
2.9448255653166206E-3 0
-4.012704860789797E-3 0
4.781316633958838E-3 0
2.632742502677845E-3 0
7.344739857381191E-3 0
4.68135413580912E-3 0
7.444522812183162E-3 0
1.9720675893397295E-3 0
4.828674848743893E-3 0
-3.176196180739403E-3 0
3.4824847009896427E-3 0
3.785502521111306E-3 0
-3.81637355807779E-3 0
1.0057656701293263E-2 0
-2.688914395455425E-3 0
-7.235378726284158E-3 0
-1.74705680901247E-2 0
1.4315757774273262E-2 0
1.502949564543611E-2 0
-1.1969933733858266E-2 0
2.1550708325974388E-2 0
3.91034164198593E-3 0
1.7569624891551328E-2 0
-1.9056593721728923E-2 0
5.299324698053223E-3 0
-1.3311941023058873E-2 0
-1.9181099227429204E-2 0
4.777855863201634E-3 0
1.4907550663166928E-2 0
-2.4625288800512082E-2 0
6.327388373359828E-1 0
-2.0735447181852988E-2 0
1.2791682166299449E-2 0
8.476749243303681E-3 0
-1.2544973485565226E-2 0
-1.2019323092399767E-2 0
9.14517654476976E-3 0
-2.056514426254412E-2 0
2.0179382035481436E-2 0
3.7474916941599736E-4 0
2.3565794910949286E-2 0
-9.704118846463177E-3 0
-4.969330130750138E-3 0
6.707036891540588E-3 0
6.607908513678717E-3 0
-5.236988506446041E-3 0
-7.545436315641219E-3 0
-2.0354210415487414E-3 0
9.10314351177172E-3 0
-4.187589095610405E-3 0
2.217947884880108E-3 0
2.7423885611287937E-3 0
-3.0648419502365375E-3 0
5.582456759992416E-3 0
1.5312831196404536E-3 0
6.514418347133517E-3 0
4.526170242819139E-3 0
6.846179277756482E-3 0
1.5916374922549659E-3 0
4.472026308661143E-3 0
-3.3528127892451724E-3 0
3.718569108895058E-3 0
3.595644091651122E-3 0
-4.365316693372196E-3 0
1.0342921130903283E-2 0
-2.535212170477285E-3 0
2.786752552334686E-2 0
-1.3700602119788389E-2 0
1.4820580570162554E-2 0
1.5132589258511157E-2 0
-1.1861645646612467E-2 0
2.126986310070732E-2 0
3.5633531664841173E-3 0
1.57018705807183E-2 0
-2.1952287303003578E-2 0
2.5934244733509335E-3 0
-1.9563341260806662E-2 0
-1.9093902516009974E-2 0
8.673316010840721E-3 0
1.266935626135885E-2 0
-2.0735447181852978E-2 0
6.3392180371916E-1 0
-2.4733198120004588E-2 0
1.2295706841228224E-2 0
6.102677586841212E-3 0
-1.338601820724233E-2 0
-1.3262510462711492E-2 0
9.579666805664853E-3 0
-2.2039234106852112E-2 0
2.0132352000074835E-2 0
2.1465887126912464E-3 0
-2.686086606758553E-3 0
-7.24281125622114E-3 0
-5.155079790032595E-3 0
6.747919217557059E-3 0
6.568291806559757E-3 0
-5.182578475207436E-3 0
-7.39214299812087E-3 0
-2.2712478428533966E-3 0
8.769416702392733E-3 0
-4.2837320544106845E-3 0
2.437442562672295E-3 0
3.3438162267634265E-3 0
-3.201147731683781E-3 0
4.804494719349549E-3 0
1.5215801111290949E-3 0
6.660229753500884E-3 0
3.922920002438972E-3 0
6.418730015106803E-3 0
1.005412692292539E-3 0
4.527244266845802E-3 0
-3.581543012408355E-3 0
3.4686625888790093E-3 0
3.108010415018792E-3 0
-4.069898250840038E-3 0
1.023438768378998E-2 0
3.642246005888847E-3 0
2.0244300390070608E-2 0
-1.331861388881009E-2 0
1.5036824138066123E-2 0
1.457295044301085E-2 0
-1.2604587796058157E-2 0
1.9893236784359798E-2 0
1.3176152350652284E-3 0
1.3668022385294624E-2 0
-2.359939170525816E-2 0
2.7748783225661697E-3 0
-1.3570047509967468E-2 0
-1.442381914309779E-2 0
8.490438033515731E-3 0
1.2791682166299443E-2 0
-2.4733198120004556E-2 0
6.280344637504635E-1 0
-2.885683251987555E-2 0
1.0292792630792375E-2 0
3.63893449816317E-3 0
-1.2277568924522274E-2 0
-1.4098410365935902E-2 0
1.083332252200974E-2 0
-2.206865706926416E-2 0
1.9735440563340093E-2 0
1.26425182604862E-2 0
-2.143465903876667E-3 0
-7.1579238193605925E-3 0
-5.1688343752813535E-3 0
6.738717588276587E-3 0
6.505022187859176E-3 0
-5.187229350077672E-3 0
-7.442812590968444E-3 0
-2.412093616288532E-3 0
8.836853643428547E-3 0
-4.1196814790462125E-3 0
3.0057883704752274E-3 0
3.7721879997288507E-3 0
-3.4521407542121396E-3 0
4.529713271415601E-3 0
1.4455428165951472E-3 0
6.390494490493069E-3 0
3.3807546837653873E-3 0
6.215996859396162E-3 0
6.035702807441104E-4 0
4.567112664257464E-3 0
-4.162576972914355E-3 0
3.703027009029922E-3 0
2.6499669276252974E-3 0
-3.743778029264523E-3 0
2.364814976272873E-2 0
2.364937426198566E-3 0
2.066107984030412E-2 0
-1.3659785948344813E-2 0
1.4790158364355006E-2 0
1.3717171859377496E-2 0
-1.3631325860914695E-2 0
1.868669636356368E-2 0
1.1857303757495552E-4 0
1.3923721340432446E-2 0
-2.24011977997413E-2 0
5.817181170148831E-3 0
-1.2177841934818344E-2 0
-1.3431648576002595E-2 0
8.476749243303685E-3 0
1.2295706841228224E-2 0
-2.885683251987552E-2 0
6.253630590134553E-1 0
-3.2918741723865066E-2 0
1.0523303887809072E-2 0
1.7199167385670863E-3 0
-1.1009762652448166E-2 0
-1.4465166275033319E-2 0
1.082509871989962E-2 0
-2.074373029972629E-2 0
-5.173361807874178E-3 0
9.181556162613718E-3 0
-2.229144874200297E-3 0
-7.047617093770616E-3 0
-5.2544367875856585E-3 0
6.727380444377992E-3 0
6.4804947331939585E-3 0
-5.250083892003761E-3 0
-7.4177808909871214E-3 0
-2.358683900651792E-3 0
9.242112828381584E-3 0
-3.7504458599052918E-3 0
3.4333183296515438E-3 0
3.8052809528423583E-3 0
-3.1711151958111134E-3 0
4.462606682430625E-3 0
1.0150642849519494E-3 0
6.22680935149671E-3 0
2.935796485618281E-3 0
6.176184734217092E-3 0
1.5311219429905483E-4 0
4.721561095269672E-3 0
-4.668604208581187E-3 0
4.025099284796028E-3 0
2.5367356293396113E-3 0
-2.5493870794630148E-2 0
1.743182491416427E-2 0
1.956713565712631E-3 0
2.0876141638843555E-2 0
-1.4365753473029852E-2 0
1.4395942840387265E-2 0
1.299877635461181E-2 0
-1.4270007690683118E-2 0
1.8915872480860924E-2 0
7.809841555149347E-4 0
1.6490234594391362E-2 0
-1.993263261597193E-2 0
8.694401153583964E-3 0
-1.1488752912973455E-2 0
-1.2544973485565223E-2 0
6.102677586841225E-3 0
1.0292792630792379E-2 0
-3.29187417238651E-2 0
6.25335418671788E-1 0
-3.626880220404731E-2 0
1.2475437182749596E-2 0
-3.9013918363881714E-5 0
-9.7149841361677E-3 0
-1.381430560233932E-2 0
9.713264666942513E-3 0
3.576954861515377E-3 0
-3.8809191181577267E-3 0
9.278616778797568E-3 0
-2.368530047865525E-3 0
-6.958427862156657E-3 0
-5.334223735245805E-3 0
6.685297514032128E-3 0
6.503247067819252E-3 0
-5.2703926010404896E-3 0
-7.301651618113198E-3 0
-2.2912384672876E-3 0
9.38120718837006E-3 0
-3.986476176258601E-3 0
3.8294360181687303E-3 0
3.696927820710059E-3 0
-3.279654458232528E-3 0
4.544888449626745E-3 0
6.201510715698142E-4 0
6.190708708587798E-3 0
2.539141088817862E-3 0
6.2245969568428695E-3 0
-2.3864659241374322E-4 0
4.961524568354308E-3 0
-4.952674216123006E-3 0
3.8617263777621143E-3 0
1.1562421357362388E-2 0
-1.8929833482975788E-2 0
1.7865012755977728E-2 0
1.2269744546541744E-3 0
2.104664572107793E-2 0
-1.4948368640094762E-2 0
1.4255118699014477E-2 0
1.3052415777276463E-2 0
-1.3964751080859436E-2 0
2.0669166373070685E-2 0
2.3831669485886013E-3 0
1.8918764492109726E-2 0
-2.051760607566624E-2 0
9.512060138270087E-3 0
-1.2019323092399774E-2 0
-1.3386018207242317E-2 0
3.638934498163172E-3 0
1.052330388780909E-2 0
-3.626880220404732E-2 0
6.276267332016001E-1 0
-3.996364391450967E-2 0
1.576973186463342E-2 0
-2.006571253951977E-3 0
-9.43993462075274E-3 0
-1.2864118085456316E-2 0
4.3723462947905375E-3 0
2.6063107588764627E-3 0
-4.043577649314683E-3 0
9.464464955241572E-3 0
-2.5684950482409027E-3 0
-6.884053281149753E-3 0
-5.34089795786966E-3 0
6.639612668493411E-3 0
6.578002313436419E-3 0
-5.292373101694187E-3 0
-7.31778034083067E-3 0
-2.6220102752223433E-3 0
1.01857960217927E-2 0
-3.668034749135114E-3 0
3.91047200312235E-3 0
3.7176198907043745E-3 0
-3.582399407657277E-3 0
4.5789137798052295E-3 0
1.7484516404273314E-4 0
6.2372929743077E-3 0
2.1901050028834542E-3 0
6.331507765454795E-3 0
-5.563522553023296E-4 0
4.878699283703362E-3 0
-4.785976029770576E-3 0
-1.5186665884357244E-2 0
8.625274632868708E-3 0
-1.9662271210753476E-2 0
1.852296060315354E-2 0
4.3721839852088606E-4 0
2.1344393617544394E-2 0
-1.5185755621499281E-2 0
1.4571688408979615E-2 0
1.3881385293274774E-2 0
-1.3445212819951348E-2 0
2.2837422941709266E-2 0
1.9530487963579232E-3 0
2.055198076233382E-2 0
-2.0394355340917696E-2 0
9.145176544769765E-3 0
-1.32625104627115E-2 0
-1.2277568924522258E-2 0
1.719916738567097E-3 0
1.2475437182749575E-2 0
-3.9963643914509656E-2 0
6.322532108725485E-1 0
-4.539146145852877E-2 0
2.0430436689732268E-2 0
-3.8169026406772466E-3 0
-1.1113493813064236E-2 0
-5.958446506326836E-3 0
3.160326589831671E-3 0
2.710747498328256E-3 0
-4.335411502320563E-3 0
9.741799828000712E-3 0
-2.750443174532339E-3 0
-6.887079145149767E-3 0
-5.208169969412591E-3 0
6.643948864330318E-3 0
6.621384939618435E-3 0
-5.479879517531704E-3 0
-6.999900359659414E-3 0
-2.5152224373729817E-3 0
1.0502917634108174E-2 0
-3.7246903361768955E-3 0
3.5982985517699073E-3 0
3.472896811246276E-3 0
-4.151467097077483E-3 0
4.742307728826631E-3 0
-2.2115677297052498E-4 0
6.340457300263768E-3 0
1.8700736459145216E-3 0
6.47169643920007E-3 0
-6.385500705668467E-4 0
4.660063700588658E-3 0
-1.854961965618336E-2 0
-1.1175095122248095E-2 0
9.285914840205436E-3 0
-2.077266779003559E-2 0
1.9347545800486275E-2 0
-1.336708587061825E-4 0
2.1806474836278088E-2 0
-1.5072129146633147E-2 0
1.5178052710077565E-2 0
1.5134140606592055E-2 0
-1.367378437096752E-2 0
2.418801497349618E-2 0
1.3633843621539145E-3 0
2.1458069023646803E-2 0
-2.0565144262544105E-2 0
9.579666805664844E-3 0
-1.4098410365935891E-2 0
-1.1009762652448182E-2 0
-3.901391836386482E-5 0
1.5769731864633388E-2 0
-4.539146145852878E-2 0
6.396422935302247E-1 0
-5.29307286351386E-2 0
2.4302995988943973E-2 0
-1.6138610940147188E-3 0
5.8273824449561395E-3 0
-4.4097261081672045E-3 0
3.0962159170347674E-3 0
2.9743960080381004E-3 0
-4.727009399894907E-3 0
1.0042520435075227E-2 0
-2.8073822725324777E-3 0
-7.034280843260625E-3 0
-5.062770899837036E-3 0
6.791049402359076E-3 0
6.6052167642690895E-3 0
-5.85528857857023E-3 0
-7.217400190419052E-3 0
-2.5222045670172865E-3 0
1.0198823398535199E-2 0
-4.254725616411484E-3 0
3.1447489108027155E-3 0
3.718817334866558E-3 0
-4.654327476893123E-3 0
4.976192258670567E-3 0
-5.454090205378965E-4 0
6.476875972430092E-3 0
1.5183988190704757E-3 0
6.498926061359846E-3 0
-4.815008603305403E-4 0
5.915417663625734E-3 0
-1.390300899632259E-2 0
-1.1720199857223923E-2 0
1.0461875076518195E-2 0
-2.1887684189438338E-2 0
2.0153951833611513E-2 0
-4.1797795947452765E-4 0
2.2322712737347483E-2 0
-1.5041915992179857E-2 0
1.5444141630230276E-2 0
1.66262420883437E-2 0
-1.5133502755909604E-2 0
2.6484978519264124E-2 0
6.920412089833816E-4 0
2.017938203548143E-2 0
-2.2039234106852094E-2 0
1.0833322522009725E-2 0
-1.4465166275033288E-2 0
-9.7149841361677E-3 0
-2.0065712539519796E-3 0
2.0430436689732247E-2 0
-5.2930728635138584E-2 0
6.491022242241425E-1 0
-5.9002737192440674E-2 0
2.0675905868684813E-2 0
-2.2673047448177038E-4 0
4.173146131345786E-3 0
-4.384532984194263E-3 0
2.8096595083530063E-3 0
3.345005833355607E-3 0
-4.931698213662256E-3 0
1.0006706988600046E-2 0
-2.392653446725004E-3 0
-7.36057123593193E-3 0
-5.378833193664308E-3 0
6.7309183938951515E-3 0
7.095400829581769E-3 0
-6.0680411190772885E-3 0
-7.390212474202814E-3 0
-2.570139503359863E-3 0
1.0442771801655088E-2 0
-4.038714154024171E-3 0
2.661113883361669E-3 0
4.031783248911364E-3 0
-4.9437957911386944E-3 0
4.887721449272505E-3 0
-6.319765732449818E-4 0
6.5016789920761785E-3 0
1.6050750867315088E-3 0
6.380480682018503E-3 0
1.1595872654235019E-2 0
5.5931473555623544E-3 0
-1.3785549273722482E-2 0
-1.276763249681047E-2 0
1.1174955970317558E-2 0
-2.1912421099677063E-2 0
1.9929973189768604E-2 0
3.1720657586633617E-4 0
2.2591964980594022E-2 0
-1.4703512765097676E-2 0
1.421862093198463E-2 0
1.7836671880879035E-2 0
-1.682304836213493E-2 0
2.5807927875721958E-2 0
3.7474916941599226E-4 0
2.0132352000074835E-2 0
-2.2068657069264155E-2 0
1.0825098719899614E-2 0
-1.3814305602339295E-2 0
-9.439934620752762E-3 0
-3.8169026406772127E-3 0
2.4302995988943952E-2 0
-5.900273719244063E-2 0
6.51506175848047E-1 0
-5.015951238502169E-2 0
7.908852091167888E-3 0
1.193667174576702E-4 0
4.0784322827540275E-3 0
-4.214167565747682E-3 0
2.8331070175250015E-3 0
3.2686765680409384E-3 0
-4.517193477948003E-3 0
9.766386975996763E-3 0
-2.1294889857867995E-3 0
-7.533545049541996E-3 0
-5.297051952067831E-3 0
7.1118809934884435E-3 0
7.91869828250134E-3 0
-5.5621311282501645E-3 0
-7.347231378533886E-3 0
-2.5913048418421043E-3 0
1.02340412827759E-2 0
-3.7423785636275997E-3 0
2.5385683595863435E-3 0
3.8654401429672972E-3 0
-4.780958265859878E-3 0
4.664330719304225E-3 0
-4.7897515218744155E-4 0
6.381236261806904E-3 0
2.43223629876597E-3 0
-4.726145459872237E-2 0
7.218842252671934E-3 0
5.7567554379388E-3 0
-1.4066081456567493E-2 0
-1.2588317822872565E-2 0
9.94540153344732E-3 0
-2.0676243647392793E-2 0
1.8890120148972324E-2 0
1.6716515721584562E-3 0
2.2114204410407807E-2 0
-1.435689469686628E-2 0
1.3888990075756304E-2 0
1.8707531010502713E-2 0
-1.5259646612888077E-2 0
2.3565794910949296E-2 0
2.146588712691239E-3 0
1.9735440563340104E-2 0
-2.0743730299726287E-2 0
9.713264666942492E-3 0
-1.28641180854563E-2 0
-1.1113493813064241E-2 0
-1.6138610940147002E-3 0
2.0675905868684768E-2 0
-5.015951238502166E-2 0
6.435419768678412E-1 0
