%%MatrixMarket matrix array complex general
%
50 50
4.779538274131431E-1 0
-4.020493941555375E-3 0
-6.6660724276471845E-3 0
9.113672562376421E-4 0
8.214654664737866E-4 0
3.9490390593466685E-5 0
-2.4159731286512716E-5 0
1.1478337646188958E-6 0
6.002996244882784E-6 0
8.006188439657071E-6 0
4.08508193407027E-5 0
6.765498004652962E-5 0
1.673794800764617E-4 0
1.6737948007645697E-4 0
6.827590578737575E-5 0
3.803139838612036E-5 0
1.5364477664698116E-5 0
-9.598012367693107E-6 0
3.202832860413822E-5 0
-8.36313972202763E-5 0
1.544228122547821E-4 0
6.129294042593146E-4 0
1.2718575941269095E-3 0
-7.099526883305044E-3 0
-4.021251143956538E-3 0
-5.276968249551352E-3 0
2.602016831980388E-2 0
-9.059980577725378E-3 0
-6.190364183342251E-3 0
7.558581374459665E-4 0
4.3918103478093E-4 0
5.163935949270357E-6 0
-2.158297271472248E-5 0
-1.6493478884974694E-5 0
3.839618349207316E-6 0
2.9183348870593867E-5 0
-9.150375847062655E-5 0
-1.1267443482732314E-4 0
-1.1267443482732124E-4 0
-9.109716489492886E-5 0
2.7337140263131946E-5 0
8.903836031539117E-6 0
-2.8365681732039436E-5 0
5.899014864423853E-6 0
-5.809336463135498E-5 0
5.929787602945141E-4 0
4.109211384371317E-4 0
-5.317418796261103E-3 0
-1.0413258839641228E-2 0
2.8181863680189056E-2 0
-4.020493941555372E-3 0
4.8828091622840586E-1 0
-2.9556737922361077E-3 0
-4.8948540492683695E-3 0
6.172672206443878E-4 0
5.444673746418037E-4 0
-3.0329698352252132E-5 0
-7.941482208397448E-5 0
-6.135981547699094E-5 0
-5.387590264554237E-5 0
-4.633450951498677E-5 0
-3.136079142680298E-5 0
-2.0309786936260673E-6 0
1.840693226577533E-5 0
2.82975830392374E-5 0
4.428519947334871E-5 0
5.016371757349458E-5 0
5.8886298468170485E-5 0
5.063136378024562E-5 0
6.53242849528248E-5 0
2.264212641580162E-6 0
1.3189889865634056E-4 0
4.936389100350833E-4 0
9.001027590927941E-4 0
-5.2228996992698335E-3 0
2.602016831980318E-2 0
-2.793799784508975E-3 0
1.8977898142758437E-2 0
-6.577284165381214E-3 0
-4.480127807573553E-3 0
5.861438343920739E-4 0
3.5856057840256267E-4 0
4.415937447512738E-5 0
2.6178708366602706E-5 0
2.9857411419604506E-5 0
2.448159658611204E-5 0
1.196303651151704E-5 0
-6.594270712169148E-5 0
-7.697836589429142E-5 0
-2.4607396042427447E-5 0
-3.729832356925768E-5 0
-3.657264340100918E-5 0
-5.126010607830571E-5 0
-2.694268509620938E-5 0
-7.972815923718577E-5 0
2.8470154116140087E-5 0
1.9378000746318212E-4 0
6.696306237697345E-4 0
-4.669724859632224E-3 0
-6.904720237657005E-3 0
-6.6660724276471845E-3 0
-2.9556737922361103E-3 0
4.882433217593E-1 0
-3.0031170874381423E-3 0
-4.9500321430198824E-3 0
5.56578668032253E-4 0
4.804825783942516E-4 0
-9.527664704332608E-5 0
-1.4305120842679104E-4 0
-1.2010534988747891E-4 0
-1.0400999467552623E-4 0
-7.610342798907296E-5 0
-2.3621986758032638E-5 0
1.6324581573749735E-5 0
4.130702777265622E-5 0
7.371384031559509E-5 0
8.991887693153699E-5 0
1.0112714390037756E-4 0
1.0209708954376531E-4 0
1.0615768144048596E-4 0
8.6364689273765E-5 0
7.64421884878244E-5 0
7.720091465083084E-5 0
6.681953300415349E-4 0
7.160504130736857E-4 0
-9.059980577724499E-3 0
1.8977839483975485E-2 0
-2.76907255676884E-3 0
1.9008719118550302E-2 0
-6.542239231192855E-3 0
-4.44309300624178E-3 0
6.228791214895737E-4 0
3.930559657473014E-4 0
7.523791666771592E-5 0
5.211728980081552E-5 0
4.907451356428355E-5 0
3.159651080873726E-5 0
3.460661709109583E-5 0
1.872517243739395E-5 0
-2.4144440228742286E-5 0
-4.3038189815749995E-5 0
-5.656029973928867E-5 0
-5.833222127606568E-5 0
-7.345228396464921E-5 0
-5.308636303037364E-5 0
-1.0497595563752128E-4 0
1.3898693577974955E-5 0
1.3445557274271218E-4 0
7.244077012688728E-4 0
-4.884567386801516E-3 0
9.113672562376442E-4 0
-4.89485404926835E-3 0
-3.003117087438141E-3 0
4.881876438320141E-1 0
-3.0651445061108296E-3 0
-5.016929643630093E-3 0
4.860424206373575E-4 0
4.0810728167428036E-4 0
-1.6710934658122718E-4 0
-2.0946686463206452E-4 0
-1.763467837865368E-4 0
-1.3286123649076663E-4 0
-8.235150813881823E-5 0
-2.1787651803798943E-5 0
4.626121894305789E-5 0
9.72833961029392E-5 0
1.2408257766073725E-4 0
1.388757995969659E-4 0
1.453335846956007E-4 0
1.414932477258757E-4 0
1.3679801884478192E-4 0
1.0953098966222885E-4 0
8.98888501482169E-5 0
7.631489736183726E-5 0
6.792498095594362E-4 0
-6.1903641833430945E-3 0
-6.577449831283232E-3 0
1.9008698868332428E-2 0
-2.7335794624795263E-3 0
1.904631397883791E-2 0
-6.505928943835235E-3 0
-4.4116020430770495E-3 0
6.471494207815397E-4 0
4.1010989430770306E-4 0
8.57185946180012E-5 0
5.69197696043613E-5 0
4.4724985679034664E-5 0
4.4062499367169265E-5 0
3.054921850699777E-5 0
-7.50769938283975E-6 0
-3.1600736558120365E-5 0
-4.8364234003737624E-5 0
-6.171420340532795E-5 0
-7.479497887920612E-5 0
-8.11860222885203E-5 0
-8.831754357383101E-5 0
-8.321253148369235E-5 0
-6.284100743563661E-5 0
2.794284597768708E-4 0
5.54610135913743E-4 0
8.214654664737841E-4 0
6.172672206443609E-4 0
-4.950032143019872E-3 0
-3.06514450611084E-3 0
4.881193755973977E-1 0
-3.1408123704663978E-3 0
-5.101932835815228E-3 0
3.9181574797892294E-4 0
3.0849303276189976E-4 0
-2.619889375273182E-4 0
-2.9053702161932954E-4 0
-2.1705342353588885E-4 0
-1.3962471483046994E-4 0
-4.899285079393465E-5 0
5.3575096791858275E-5 0
1.3089131778343987E-4 0
1.7010718381515785E-4 0
1.8943812394469928E-4 0
1.9132838979582344E-4 0
1.8191326904363027E-4 0
1.6674795105405313E-4 0
1.4455909403800245E-4 0
1.1684616219631223E-4 0
6.272130823173663E-5 0
7.708158287871859E-5 0
7.558581374466028E-4 0
-4.480339151379655E-3 0
-6.54171962375382E-3 0
1.904783766637766E-2 0
-2.6937102294111058E-3 0
1.9083654993047875E-2 0
-6.474235378099247E-3 0
-4.387864625413483E-3 0
6.635711450275331E-4 0
4.2186007956557454E-4 0
9.498850389310895E-5 0
5.827120459713189E-5 0
4.805949179831089E-5 0
3.735078854325177E-5 0
1.2008161268437207E-5 0
-1.7646325843590418E-5 0
-3.879219949250581E-5 0
-6.01205520156915E-5 0
-7.985420832207778E-5 0
-9.599667989917396E-5 0
-9.844896520855001E-5 0
-9.977350767631452E-5 0
-8.070249684502725E-5 0
-6.241390564755275E-5 0
3.139081493748764E-4 0
3.949039059346972E-5 0
5.444673746418271E-4 0
5.565786680322517E-4 0
-5.016929643630088E-3 0
-3.140812370466441E-3 0
4.88027852503189E-1 0
-3.257124145102771E-3 0
-5.247136339315253E-3 0
2.2511590698588875E-4 0
1.4425989693001343E-4 0
-4.0113512563864445E-4 0
-3.620014860152607E-4 0
-2.2772381401515708E-4 0
-8.052314379446871E-5 0
7.851026441731834E-5 0
2.012310140650004E-4 0
2.617020756251335E-4 0
2.803895065259147E-4 0
2.63415041679272E-4 0
2.3157723102067878E-4 0
1.9761882094107629E-4 0
1.6660417509600217E-4 0
1.3320651609704338E-4 0
9.419623254940315E-5 0
3.208423116230506E-5 0
4.391810347805455E-4 0
5.86112622454838E-4 0
-4.440805117279615E-3 0
-6.49954468003902E-3 0
1.909140993659528E-2 0
-2.647846395622079E-3 0
1.9134166709085937E-2 0
-6.419175261258222E-3 0
-4.331666734192425E-3 0
7.154627737464738E-4 0
4.7173192351411357E-4 0
1.2789266448254717E-4 0
7.914304523185834E-5 0
5.992327565154328E-5 0
1.158018212294423E-5 0
-3.422763124278326E-5 0
-6.408157475878286E-5 0
-9.477814659709962E-5 0
-1.1454913239738166E-4 0
-1.2170880432128649E-4 0
-1.1800003883704474E-4 0
-1.0846633924144203E-4 0
-9.120892529629644E-5 0
-7.679332346478356E-5 0
-2.9227166239223928E-5 0
-2.4159731286512157E-5 0
-3.032969835226455E-5 0
4.8048257839425405E-4 0
4.860424206373571E-4 0
-5.101932835815223E-3 0
-3.257124145102831E-3 0
4.878593296205218E-1 0
-3.4904719675453643E-3 0
-5.536342406803418E-3 0
-7.602394074924547E-5 0
-1.0632594487059516E-4 0
-5.260042680932816E-4 0
-3.8091351948037357E-4 0
-1.2545889641567558E-4 0
1.3888291401376634E-4 0
3.510429114692811E-4 0
4.478334405010723E-4 0
4.4396245564091324E-4 0
3.7832688797100853E-4 0
2.989459108787796E-4 0
2.3139027636344444E-4 0
1.823302747987875E-4 0
1.4230317753889283E-4 0
1.03505486943127E-4 0
5.448453235322338E-5 0
5.163935949471707E-6 0
3.5910472366504755E-4 0
6.286547414456901E-4 0
-4.395840978800562E-3 0
-6.450038456110734E-3 0
1.9155518517881557E-2 0
-2.552950243509288E-3 0
1.927088842258279E-2 0
-6.253222652009913E-3 0
-4.174973974491314E-3 0
8.5558772081423E-4 0
5.625584093272409E-4 0
1.6834319805741503E-4 0
6.721993022686686E-5 0
-3.814362903585219E-5 0
-1.2786530386538368E-4 0
-1.8524971042933668E-4 0
-2.2379995649398016E-4 0
-2.1118114636391045E-4 0
-1.7541173848106037E-4 0
-1.4288457712955112E-4 0
-1.1939469915473498E-4 0
-9.818454013474263E-5 0
-7.433323382325142E-5 0
-5.18257147936723E-5 0
1.1478337646189595E-6 0
-7.94148220839679E-5 0
-9.527664704332865E-5 0
4.081072816742812E-4 0
3.9181574797892793E-4 0
-5.247136339315223E-3 0
-3.4904719675453314E-3 0
4.875125989865197E-1 0
-3.947335514905282E-3 0
-6.042168395296008E-3 0
-5.07390223498818E-4 0
-3.1233055650981006E-4 0
-5.443212229096069E-4 0
-2.1096109066014244E-4 0
2.553866402877436E-4 0
6.273882885103827E-4 0
7.502748418348232E-4 0
6.817964125714452E-4 0
5.298168528056198E-4 0
3.7842548758081675E-4 0
2.6335420347527524E-4 0
1.914079314296398E-4 0
1.442319956918611E-4 0
1.0466051431899285E-4 0
5.9631380015797176E-5 0
-2.1582972714812287E-5 0
4.5715018848666516E-5 0
4.038731735072803E-4 0
6.762033243708592E-4 0
-4.339620654721182E-3 0
-6.364357822190942E-3 0
1.930878929367424E-2 0
-2.293485788424393E-3 0
1.9631172237112183E-2 0
-5.865645697702277E-3 0
-3.882179745260907E-3 0
9.989048712635406E-4 0
6.220776561425774E-4 0
7.128680156013732E-5 0
-1.5357402960430267E-4 0
-3.654784059287163E-4 0
-5.141119380811518E-4 0
-4.923133852944277E-4 0
-3.732565703392909E-4 0
-2.4909602777866313E-4 0
-1.6943412013210616E-4 0
-1.2857571194076832E-4 0
-1.0286081473202607E-4 0
-7.718821530939222E-5 0
-4.724092681205009E-5 0
6.002996244882121E-6 0
-6.135981547699015E-5 0
-1.4305120842678735E-4 0
-1.6710934658122932E-4 0
3.08493032761892E-4 0
2.2511590698587417E-4 0
-5.536342406803422E-3 0
-3.94733551490527E-3 0
4.868769067405871E-1 0
-4.681968052005359E-3 0
-6.76927261114436E-3 0
-8.851405478375047E-4 0
-3.120172122662389E-4 0
-3.013755548057726E-4 0
4.6903999542838635E-4 0
1.0627031070657563E-3 0
1.112311103188804E-3 0
9.482544539391248E-4 0
6.81608299924921E-4 0
4.4415670031706944E-4 0
2.800981404825227E-4 0
1.8982030337310818E-4 0
1.3864190721582514E-4 0
1.0093515841407576E-4 0
5.849008643555042E-5 0
-1.649347888494219E-5 0
2.9002735816895334E-5 0
9.164086006586161E-5 0
4.537510656248337E-4 0
7.387403877556868E-4 0
-4.238809880389379E-3 0
-6.174102973309433E-3 0
1.966777308679637E-2 0
-1.6985645929139762E-3 0
2.039808232790117E-2 0
-5.271592866773582E-3 0
-3.605948269558618E-3 0
1.071148719605069E-3 0
3.45416789423691E-4 0
-4.3830738791073546E-4 0
-9.276490415221064E-4 0
-1.1072464376712524E-3 0
-8.563758502531317E-4 0
-5.29005565678624E-4 0
-3.0281675654068814E-4 0
-1.8765618920368697E-4 0
-1.3508512016771712E-4 0
-1.0552975574944866E-4 0
-7.886065589425463E-5 0
-4.771423866178685E-5 0
8.00618843965407E-6 0
-5.3875902645546295E-5 0
-1.2010534988748001E-4 0
-2.0946686463205877E-4 0
-2.6198893752731126E-4 0
1.4425989693001828E-4 0
-7.602394074924528E-5 0
-6.0421683952960195E-3 0
-4.68196805200537E-3 0
4.860234088098917E-1 0
-5.559622459717691E-3 0
-7.191679408685687E-3 0
-8.821592841656571E-4 0
7.240735289944716E-6 0
5.99549224213935E-4 0
1.2939240156095674E-3 0
1.3385138756165694E-3 0
1.1125152133440535E-3 0
7.500776847817473E-4 0
4.4811502586115243E-4 0
2.6138862013092045E-4 0
1.7046848515800777E-4 0
1.2337107506134263E-4 0
9.108810058571485E-5 0
5.3942674753435356E-5 0
3.839618349196554E-6 0
3.3261628796011555E-5 0
7.166775974009807E-5 0
1.3865551018116677E-4 0
5.156906660078038E-4 0
8.354481187057424E-4 0
-4.07452276422038E-3 0
-5.833731750638401E-3 0
2.036058395785435E-2 0
-7.122907981903384E-4 0
2.148086061741567E-2 0
-4.663103243083753E-3 0
-3.858517519117215E-3 0
6.45709680721982E-4 0
-7.747584859998061E-4 0
-1.8238526073432845E-3 0
-1.604486063461918E-3 0
-1.0699951411183117E-3 0
-5.456169685130683E-4 0
-2.8620055467606936E-4 0
-1.8355913653196802E-4 0
-1.3324218502323035E-4 0
-1.0052580271592203E-4 0
-7.50419019448924E-5 0
-4.61328425216151E-5 0
4.085081934070244E-5 0
-4.633450951498142E-5 0
-1.0400999467552296E-4 0
-1.7634678378653876E-4 0
-2.9053702161933165E-4 0
-4.011351256386421E-4 0
-1.0632594487059581E-4 0
-5.073902234988219E-4 0
-6.769272611144366E-3 0
-5.559622459717687E-3 0
4.8504168958311605E-1 0
-6.097082273937021E-3 0
-7.571225356469723E-3 0
-6.213094386584281E-4 0
8.700735879225794E-4 0
1.265136079236246E-3 0
1.2937327853021975E-3 0
1.0629608464805085E-3 0
6.269680722244714E-4 0
3.5156561035480324E-4 0
2.006254778349716E-4 0
1.3153170406692347E-4 0
9.661548693425752E-5 0
7.429805067705816E-5 0
4.576387592724663E-5 0
2.91833488705985E-5 0
2.680001783257451E-5 0
6.647708313823551E-5 0
1.0744113429522397E-4 0
1.8801426726054686E-4 0
5.945618442474291E-4 0
9.472056515740728E-4 0
-3.914472055599028E-3 0
-5.47923071096378E-3 0
2.1283866931122372E-2 0
3.184702842261909E-4 0
2.1833094440278467E-2 0
-4.966005556714651E-3 0
-4.418501293106162E-3 0
-5.551986820649021E-4 0
-1.633139465421991E-3 0
-1.6270869496437601E-3 0
-7.195111857795543E-4 0
-3.339133249385363E-4 0
-2.1861918771203976E-4 0
-1.579219947626644E-4 0
-1.0989452862768151E-4 0
-8.26157487993488E-5 0
-6.104786472525008E-5 0
-4.003258506365663E-5 0
6.765498004653477E-5 0
-3.136079142680709E-5 0
-7.610342798907536E-5 0
-1.3286123649076354E-4 0
-2.1705342353588557E-4 0
-3.6200148601526415E-4 0
-5.260042680932842E-4 0
-3.1233055650981104E-4 0
-8.851405478375007E-4 0
-7.191679408685699E-3 0
-6.097082273937004E-3 0
4.847085486278543E-1 0
-6.536951295252618E-3 0
-7.562939856371564E-3 0
-1.468139930160237E-4 0
8.70220500252801E-4 0
5.99235031172676E-4 0
4.6961351216680156E-4 0
2.54572060496539E-4 0
1.3988369190810578E-4 0
7.743669873115549E-5 0
5.4601570387624415E-5 0
4.530175853907126E-5 0
4.2126046326019E-5 0
2.9609597110724706E-5 0
-9.150375847062815E-5 0
1.0737875159438966E-5 0
3.836201780504958E-5 0
7.260202325242407E-5 0
1.1386415788466844E-4 0
2.017767515080786E-4 0
6.015052773127956E-4 0
9.05632984191786E-4 0
-3.994765252457003E-3 0
-5.168846721258197E-3 0
2.130165020089645E-2 0
-1.3863388280218542E-5 0
2.287139518194809E-2 0
-5.1929730190818455E-3 0
-4.081865586282923E-3 0
-2.3382112864649613E-5 0
-2.698657314673044E-4 0
-4.801712722003867E-5 0
-6.239181797424589E-5 0
-7.457239078767706E-5 0
-6.492867365681608E-5 0
-4.123725898111011E-5 0
-3.711944770111598E-5 0
-2.9813315099577663E-5 0
-2.5295651236951312E-5 0
1.6737948007646087E-4 0
-2.03097869362884E-6 0
-2.362198675803495E-5 0
-8.235150813882005E-5 0
-1.3962471483047197E-4 0
-2.2772381401515947E-4 0
-3.8091351948037417E-4 0
-5.443212229096047E-4 0
-3.120172122662375E-4 0
-8.821592841656623E-4 0
-7.571225356469721E-3 0
-6.536951295252616E-3 0
4.827563100902124E-1 0
-7.013721369810102E-3 0
-7.562967802442374E-3 0
-6.211825446798545E-4 0
6.93249074336333E-6 0
-3.0082787537722577E-4 0
-2.1175930843426075E-4 0
-1.24444683635843E-4 0
-8.171139034056256E-5 0
-4.7651419749954164E-5 0
-2.3361378636781334E-5 0
1.78765630182153E-5 0
1.867969573974873E-5 0
-1.1267443482732291E-4 0
-6.789596208606652E-5 0
3.398416442088669E-5 0
4.936172549160628E-5 0
6.108234303318765E-5 0
9.551531553545686E-5 0
1.6737901968599244E-4 0
5.648655903634361E-4 0
8.354825519907479E-4 0
-4.214760756532756E-3 0
-5.4660467770705976E-3 0
2.2551736978403316E-2 0
3.7667166043404683E-4 0
2.45667334761298E-2 0
-4.873137600112288E-3 0
-3.919264750104086E-3 0
1.0038959569727403E-3 0
5.776883754635023E-4 0
1.332618935291076E-4 0
6.258499523028167E-5 0
4.908589981565584E-5 0
1.991608570234179E-5 0
2.7093440275639696E-5 0
2.0316195359704664E-5 0
-8.01585526450321E-5 0
1.673794800764561E-4 0
1.8406932265775326E-5 0
1.6324581573751195E-5 0
-2.178765180379911E-5 0
-4.8992850793935975E-5 0
-8.052314379447036E-5 0
-1.254588964156788E-4 0
-2.1096109066014732E-4 0
-3.013755548057761E-4 0
7.2407352899522035E-6 0
-6.213094386584329E-4 0
-7.562939856371566E-3 0
-7.013721369810099E-3 0
4.827563100902124E-1 0
-6.536751487638612E-3 0
-7.572132617574793E-3 0
-8.799687124734832E-4 0
-3.1584337665323514E-4 0
-5.389507143565787E-4 0
-3.872475110979145E-4 0
-2.2135165997224534E-4 0
-1.450391229158427E-4 0
-7.870039976203164E-5 0
-2.5301758846134453E-5 0
-1.7429754406593213E-6 0
-1.126744348273193E-4 0
-7.502511092991833E-5 0
1.9347625107609365E-5 0
2.5249992382556564E-5 0
2.4327937308384692E-5 0
4.355100534794341E-5 0
6.818410859828516E-5 0
1.2849886733927248E-4 0
5.810829570380029E-4 0
1.0019529181375041E-3 0
-3.9184600727502255E-3 0
-4.873314815537071E-3 0
2.4566733476129803E-2 0
3.7667166043404683E-4 0
2.2551699284544268E-2 0
-5.465875621569967E-3 0
-4.2151790259250714E-3 0
8.362381544195503E-4 0
5.637318277041729E-4 0
1.6887526460351846E-4 0
9.367333156643355E-5 0
6.331021955979728E-5 0
4.610468807818209E-5 0
3.8015399788297954E-5 0
-7.366982182313091E-5 0
6.827590578738179E-5 0
2.8297583039240955E-5 0
4.130702777265787E-5 0
4.626121894306123E-5 0
5.357509679186016E-5 0
7.851026441731863E-5 0
1.3888291401376547E-4 0
2.553866402877428E-4 0
4.690399954283892E-4 0
5.995492242139419E-4 0
8.700735879225961E-4 0
-1.468139930160263E-4 0
-7.56296780244237E-3 0
-6.536751487638613E-3 0
4.847073785615754E-1 0
-6.093058024883717E-3 0
-7.200509272899387E-3 0
-8.702105921713336E-4 0
-3.3310555365706214E-4 0
-5.012802402349226E-4 0
-3.8758131830010493E-4 0
-1.9400304575885246E-4 0
-1.5065175028921278E-4 0
-6.524479394178847E-5 0
-3.712971737099323E-5 0
-9.109716489492611E-5 0
-2.33822137057595E-5 0
-3.090987891307466E-5 0
-3.538458098777992E-5 0
-4.358450955592754E-5 0
-6.23034568283607E-5 0
-7.709003433063299E-5 0
-6.03023600516586E-5 0
-4.949130059267964E-5 0
-2.690138184605507E-4 0
-2.3745410663162703E-5 0
-4.081843190902346E-3 0
-5.1927800380183395E-3 0
2.2871341722450315E-2 0
-1.5513045164695818E-5 0
2.130824062555545E-2 0
-5.184029829066111E-3 0
-3.968773463756289E-3 0
8.695167793918083E-4 0
6.439612521290726E-4 0
1.5866055660393758E-4 0
1.518866565151859E-4 0
4.375750391434965E-5 0
5.58965672673625E-5 0
4.723396069025312E-6 0
3.8031398386119526E-5 0
4.4285199473342975E-5 0
7.371384031559223E-5 0
9.728339610294033E-5 0
1.3089131778344315E-4 0
2.01231014065001E-4 0
3.510429114692787E-4 0
6.273882885103852E-4 0
1.0627031070657635E-3 0
1.2939240156095637E-3 0
1.265136079236255E-3 0
8.702205002528114E-4 0
-6.21182544679853E-4 0
-7.5721326175747965E-3 0
-6.093058024883738E-3 0
4.850292680746673E-1 0
-5.5336383309543945E-3 0
-6.812512669412149E-3 0
-4.473029719655138E-4 0
-1.7847470655708142E-4 0
-3.253213671943064E-4 0
-3.6027546907359514E-4 0
-1.2075262479108405E-4 0
-1.3981442421386205E-4 0
-3.433241743770884E-5 0
2.7337140263128165E-5 0
-3.9616840099975346E-5 0
-6.044106957221589E-5 0
-8.21228094509026E-5 0
-1.1067337178410071E-4 0
-1.5705958653482128E-4 0
-2.1948533555291507E-4 0
-3.3318510790732956E-4 0
-7.200071307941147E-4 0
-1.6268643215671015E-3 0
-1.6331804768730225E-3 0
-5.549280423541002E-4 0
-4.41937755707541E-3 0
-4.965762814598627E-3 0
2.1839795587064628E-2 0
2.9212975458164144E-4 0
2.134423444376031E-2 0
-5.5826771059097864E-3 0
-3.7699254070682605E-3 0
7.757740479603967E-4 0
7.704353958113381E-4 0
3.1472144477155255E-5 0
2.2673365565810692E-4 0
-5.836843811127871E-6 0
5.553736721228812E-5 0
1.536447766469531E-5 0
5.016371757349876E-5 0
8.991887693153913E-5 0
1.2408257766073744E-4 0
1.7010718381515742E-4 0
2.6170207562513473E-4 0
4.4783344050107406E-4 0
7.502748418348151E-4 0
1.1123111031887912E-3 0
1.3385138756165796E-3 0
1.2937327853022127E-3 0
5.992350311726697E-4 0
6.9324907433576665E-6 0
-8.79968712473477E-4 0
-7.200509272899385E-3 0
-5.533638330954428E-3 0
4.859702317248667E-1 0
-4.593824679899219E-3 0
-6.165472073041407E-3 0
7.431368364037501E-5 0
-1.7030627230805382E-5 0
-1.1038030841477016E-4 0
-3.322407216490278E-4 0
-4.038405487842699E-5 0
-8.978163249382061E-5 0
8.903836031539302E-6 0
-3.997662853714553E-5 0
-7.611001459205586E-5 0
-1.012994262167388E-4 0
-1.3261966478358763E-4 0
-1.8406197113917123E-4 0
-2.856958088076761E-4 0
-5.460282399647169E-4 0
-1.0697578275963187E-3 0
-1.6044728042573047E-3 0
-1.8239809690495212E-3 0
-7.75361995952004E-4 0
6.47826831310889E-4 0
-3.859109900263201E-3 0
-4.67853237522006E-3 0
2.1541123062664706E-2 0
-8.504582498425125E-4 0
2.059885315385641E-2 0
-6.1707022332323684E-3 0
-3.6682643501989632E-3 0
4.1106612015941147E-4 0
8.997853604626922E-4 0
-1.5827865270353698E-4 0
2.540482311949386E-4 0
-3.474800722606865E-5 0
-9.598012367692669E-6 0
5.8886298468167395E-5 0
1.0112714390037729E-4 0
1.388757995969669E-4 0
1.894381239446981E-4 0
2.8038950652591385E-4 0
4.439624556409138E-4 0
6.817964125714381E-4 0
9.4825445393911E-4 0
1.112515213344068E-3 0
1.0629608464805178E-3 0
4.6961351216678995E-4 0
-3.008278753772235E-4 0
-3.158433766532356E-4 0
-8.702105921713297E-4 0
-6.812512669412146E-3 0
-4.593824679899244E-3 0
4.86729681690886E-1 0
-3.737796661277964E-3 0
-5.798819196769705E-3 0
5.167698394678374E-4 0
2.3788156254328263E-5 0
7.193138212039408E-5 0
-3.033298735719933E-4 0
3.2247118262301123E-6 0
-2.8365681732040313E-5 0
-5.408455003707995E-5 0
-7.473651425702368E-5 0
-1.0535845170301351E-4 0
-1.3529536802685277E-4 0
-1.8764382427867486E-4 0
-3.029287596275388E-4 0
-5.289102712833868E-4 0
-8.563590955906307E-4 0
-1.107517766760179E-3 0
-9.273263328127797E-4 0
-4.372743097245104E-4 0
3.4171177462213523E-4 0
1.0722147552609269E-3 0
-3.5795171768088115E-3 0
-5.374857892444746E-3 0
2.06363660197159E-2 0
-2.1153561895063786E-3 0
2.0270873839803687E-2 0
-6.9237968275868205E-3 0
-3.4282976755433026E-3 0
-1.773761702514116E-5 0
1.0516686581330346E-3 0
-2.816713241415722E-4 0
1.761934927893987E-4 0
3.2028328604135126E-5 0
5.06313637802462E-5 0
1.0209708954376435E-4 0
1.4533358469559867E-4 0
1.913283897958235E-4 0
2.6341504167927014E-4 0
3.783268879710043E-4 0
5.298168528056144E-4 0
6.816082999249173E-4 0
7.500776847817564E-4 0
6.269680722244671E-4 0
2.545720604965341E-4 0
-2.1175930843425608E-4 0
-5.389507143565814E-4 0
-3.331055536570573E-4 0
-4.473029719655112E-4 0
-6.165472073041417E-3 0
-3.737796661277958E-3 0
4.872060746510623E-1 0
-3.0915985064755426E-3 0
-5.712414801242744E-3 0
8.727444117654415E-4 0
-1.6794683872714004E-5 0
1.9662488216803142E-4 0
-2.0852072459830683E-4 0
5.899014864422974E-6 0
-2.8497713510593814E-5 0
-8.426750805991263E-5 0
-1.0384436752328164E-4 0
-1.2808999705894448E-4 0
-1.693536451277265E-4 0
-2.490685974269211E-4 0
-3.7326161842966577E-4 0
-4.924272820541961E-4 0
-5.136656768404599E-4 0
-3.659474206253755E-4 0
-1.5502246087475E-4 0
7.650290506891979E-5 0
6.204908161643673E-4 0
9.621472046962202E-4 0
-3.7378903233486393E-3 0
-6.202655880475352E-3 0
2.0234299520720464E-2 0
-3.1979607837459116E-3 0
2.0488735550843813E-2 0
-7.714281669011467E-3 0
-3.008370568343609E-3 0
-4.2122109534197997E-4 0
1.1060912923956654E-3 0
-2.323070967947199E-4 0
-8.363139722027197E-5 0
6.532428495282831E-5 0
1.0615768144048602E-4 0
1.414932477258743E-4 0
1.819132690436301E-4 0
2.3157723102067572E-4 0
2.9894591087877286E-4 0
3.78425487580813E-4 0
4.4415670031707074E-4 0
4.4811502586115297E-4 0
3.51565610354799E-4 0
1.398836919081036E-4 0
-1.2444468363584043E-4 0
-3.872475110979139E-4 0
-5.012802402349227E-4 0
-1.7847470655707882E-4 0
7.431368364037623E-5 0
-5.7988191967697075E-3 0
-3.091598506475541E-3 0
4.8731476068272445E-1 0
-2.5836177694356062E-3 0
-5.8495193337901865E-3 0
1.2010999876613609E-3 0
-4.601147075676865E-5 0
2.0214894882737206E-4 0
-5.809336463135253E-5 0
-8.027309749031432E-5 0
-5.88645151880331E-5 0
-9.695283934513203E-5 0
-1.2020404473089325E-4 0
-1.4307708421019519E-4 0
-1.754290487810906E-4 0
-2.11190616885417E-4 0
-2.2367288790441672E-4 0
-1.8580090817803895E-4 0
-1.273258760878522E-4 0
-3.6428145025589496E-5 0
6.105296847783353E-5 0
1.704072913559706E-4 0
6.058174692211864E-4 0
6.844786346664701E-4 0
-3.7686588831233664E-3 0
-7.002949823040228E-3 0
2.04508435619184E-2 0
-4.19646972483112E-3 0
2.1189523786079405E-2 0
-8.634320521845823E-3 0
-2.468629964547828E-3 0
-6.338274241785295E-4 0
8.889806296868509E-4 0
1.54422812254783E-4 0
2.264212641580519E-6 0
8.636468927376818E-5 0
1.3679801884478423E-4 0
1.6674795105404977E-4 0
1.9761882094107263E-4 0
2.3139027636344102E-4 0
2.633542034752755E-4 0
2.800981404825285E-4 0
2.613886201309191E-4 0
2.006254778349689E-4 0
7.74366987311541E-5 0
-8.171139034056074E-5 0
-2.2135165997224266E-4 0
-3.875813183001063E-4 0
-3.253213671943048E-4 0
-1.703062723080021E-5 0
5.167698394678269E-4 0
-5.712414801242749E-3 0
-2.583617769435584E-3 0
4.8714030695741284E-1 0
-2.0867820842825303E-3 0
-6.132947910237012E-3 0
1.4953626667516301E-3 0
1.1803340390024935E-4 0
5.929787602945202E-4 0
2.8502293458137892E-5 0
-1.0726089880080403E-4 0
-9.469509178249792E-5 0
-1.0619161038364989E-4 0
-1.1798053160949403E-4 0
-1.2151137991906636E-4 0
-1.1461676522145753E-4 0
-9.481714376242626E-5 0
-6.350650376293764E-5 0
-3.4728919072038625E-5 0
9.838188214576741E-6 0
6.608170343895552E-5 0
7.667752794313498E-5 0
8.389414256263938E-5 0
6.472402866705483E-4 0
2.910184334059368E-4 0
-3.521145540951153E-3 0
-7.7690861016385376E-3 0
2.116813412023151E-2 0
-5.420431387488532E-3 0
2.2407343186173954E-2 0
-9.774679290359503E-3 0
-2.047969460229182E-3 0
-4.38342146849912E-4 0
6.129294042593108E-4 0
1.3189889865634113E-4 0
7.6442188487831E-5 0
1.0953098966223079E-4 0
1.4455909403799703E-4 0
1.6660417509599482E-4 0
1.823302747987861E-4 0
1.9140793142964228E-4 0
1.898203033731153E-4 0
1.7046848515800473E-4 0
1.315317040669265E-4 0
5.4601570387621406E-5 0
-4.765141974995303E-5 0
-1.4503912291583907E-4 0
-1.9400304575885064E-4 0
-3.602754690735973E-4 0
-1.1038030841476917E-4 0
2.378815625432461E-5 0
8.727444117654354E-4 0
-5.849519333790189E-3 0
-2.0867820842825043E-3 0
4.867928125872437E-1 0
-1.564128824437043E-3 0
-6.307349685100704E-3 0
1.350724453786872E-3 0
4.109211384371212E-4 0
1.9399033169846327E-4 0
1.3375818081903631E-5 0
-8.474380579773062E-5 0
-9.978774312848374E-5 0
-1.0073446996877786E-4 0
-9.522540507652966E-5 0
-8.03433034997757E-5 0
-5.991588411278275E-5 0
-3.949630420101861E-5 0
-1.723432084169497E-5 0
1.3500370110167431E-5 0
3.233907371784509E-5 0
5.088723154429354E-5 0
9.714931014887265E-5 0
-6.118934707052403E-5 0
8.060426035619442E-4 0
-9.291243070505067E-5 0
-3.056594789995309E-3 0
-8.658500262441204E-3 0
2.2399623616836763E-2 0
-7.110167580430564E-3 0
2.401760072134457E-2 0
-1.0806856612904158E-2 0
-2.586951082002295E-3 0
1.2718575941269052E-3 0
4.936389100350854E-4 0
7.720091465082614E-5 0
8.988885014821524E-5 0
1.1684616219630864E-4 0
1.332065160970357E-4 0
1.4230317753889164E-4 0
1.442319956918645E-4 0
1.3864190721582756E-4 0
1.2337107506133973E-4 0
9.661548693426024E-5 0
4.53017585390686E-5 0
-2.336137863678155E-5 0
-7.870039976202877E-5 0
-1.5065175028920947E-4 0
-1.2075262479108707E-4 0
-3.322407216490254E-4 0
7.193138212038774E-5 0
-1.6794683872700563E-5 0
1.2010999876613275E-3 0
-6.13294791023697E-3 0
-1.56412882443703E-3 0
4.8640601315907533E-1 0
-1.259375965406756E-3 0
-6.117479617733875E-3 0
-5.3174187962610935E-3 0
6.697973771504581E-4 0
1.3447877468923943E-4 0
-6.283414857677126E-5 0
-7.916422219769964E-5 0
-8.479682809472423E-5 0
-8.238114817512557E-5 0
-7.376235428648688E-5 0
-6.183663568670662E-5 0
-4.7454121173544855E-5 0
-3.1724727535625525E-5 0
-8.485948468521695E-6 0
3.290617173952265E-5 0
4.029195661429845E-5 0
1.5124160514481089E-5 0
1.758419268088811E-4 0
-2.113486123063498E-4 0
1.007972463165517E-3 0
-4.5031504275967174E-4 0
-2.484439108677452E-3 0
-9.781084670523585E-3 0
2.401605485636245E-2 0
-8.972140336500218E-3 0
2.486290708480921E-2 0
-1.0279673253793524E-2 0
-7.099526883305041E-3 0
9.001027590927912E-4 0
6.68195330041531E-4 0
7.631489736183377E-5 0
6.272130823173775E-5 0
9.419623254940297E-5 0
1.0350548694312277E-4 0
1.0466051431899517E-4 0
1.0093515841407601E-4 0
9.108810058571493E-5 0
7.429805067706149E-5 0
4.212604632601777E-5 0
1.787656301821333E-5 0
-2.5301758846132986E-5 0
-6.524479394178539E-5 0
-1.398144242138653E-4 0
-4.038405487842853E-5 0
-3.0332987357199726E-4 0
1.9662488216803237E-4 0
-4.601147075676569E-5 0
1.4953626667516225E-3 0
-6.307349685100672E-3 0
-1.2593759654067592E-3 0
4.8628094095059693E-1 0
-1.9781728406717027E-3 0
-1.0413258839641216E-2 0
-4.6696671485591595E-3 0
7.244061351352367E-4 0
2.794048241555912E-4 0
-6.190451878818865E-5 0
-7.453199370770618E-5 0
-6.860917083763352E-5 0
-6.644666906501603E-5 0
-6.256327057821189E-5 0
-5.567143320496037E-5 0
-4.398598881082873E-5 0
-2.3617683574984002E-5 0
1.9330233415358937E-5 0
3.900136173264517E-5 0
4.970100399246819E-5 0
-2.2899029625146587E-5 0
2.3467851680507057E-4 0
-2.979700574878848E-4 0
1.095351726928217E-3 0
-6.395540146784131E-4 0
-2.0502278511220088E-3 0
-1.0807369257818243E-2 0
2.4862933663691755E-2 0
-8.41992977123276E-3 0
2.3598644805699745E-2 0
-4.021251143956532E-3 0
-5.222899699269836E-3 0
7.160504130736845E-4 0
6.792498095594349E-4 0
7.708158287871559E-5 0
3.208423116230796E-5 0
5.448453235322526E-5 0
5.963138001579282E-5 0
5.849008643555327E-5 0
5.394267475343199E-5 0
4.576387592724865E-5 0
2.960959711072406E-5 0
1.8679695739748635E-5 0
-1.7429754406573667E-6 0
-3.712971737099289E-5 0
-3.433241743770753E-5 0
-8.97816324938221E-5 0
3.224711826235373E-6 0
-2.0852072459832033E-4 0
2.0214894882738312E-4 0
1.1803340390025085E-4 0
1.3507244537868692E-3 0
-6.117479617733883E-3 0
-1.9781728406717053E-3 0
4.8632612070113634E-1 0
2.818186368018894E-2 0
-6.904719828672567E-3 0
-4.884628879626822E-3 0
5.544360794374367E-4 0
3.1368883474674277E-4 0
-2.9248155909653272E-5 0
-5.122577264698509E-5 0
-4.555804202522251E-5 0
-4.467459170743965E-5 0
-4.24474217695126E-5 0
-3.743121236804714E-5 0
-2.6355582929288798E-5 0
-8.207700912217405E-5 0
-7.175136534598647E-5 0
5.783349959223693E-6 0
5.293589372344929E-5 0
-3.843318229781318E-5 0
1.7315340515909136E-4 0
-2.3398932971773845E-4 0
8.883798480481265E-4 0
-4.383201748264561E-4 0
-2.5867328486498644E-3 0
-1.027949804448346E-2 0
2.3598705296848706E-2 0
-5.383594699459861E-3 0
-5.27696824955135E-3 0
2.6020168319803187E-2 0
-9.059980577724492E-3 0
-6.190364183343095E-3 0
7.558581374466081E-4 0
4.3918103478054213E-4 0
5.163935949472259E-6 0
-2.158297271481425E-5 0
-1.6493478884943174E-5 0
3.839618349194977E-6 0
2.9183348870600806E-5 0
-9.150375847062776E-5 0
-1.126744348273236E-4 0
-1.1267443482731997E-4 0
-9.10971648949279E-5 0
2.733714026313321E-5 0
8.90383603153512E-6 0
-2.8365681732039456E-5 0
5.899014864422059E-6 0
-5.80933646313562E-5 0
5.929787602945194E-4 0
4.109211384371279E-4 0
-5.3174187962610866E-3 0
-1.0413258839641214E-2 0
2.8181863680188938E-2 0
6.212406265758514E-1 0
1.3926591105149688E-3 0
3.68869256044965E-2 0
-1.1313661184804934E-2 0
-3.9794196913708535E-3 0
5.580989108154473E-4 0
1.8242125676011384E-4 0
-2.929941384685821E-5 0
-3.2415296558706E-5 0
-8.6852247212437E-6 0
-1.788249815430892E-4 0
-2.660241690535808E-4 0
-7.983367183174475E-4 0
-7.983367183174359E-4 0
-2.714813189444295E-4 0
-1.540458465475474E-4 0
-7.320110237776559E-5 0
1.0365930319201921E-4 0
-2.9635371252786723E-4 0
6.913164640887992E-4 0
-4.1341760241671397E-4 0
-2.2355153716630627E-3 0
-1.4344009492641474E-2 0
4.057311795119882E-2 0
-3.8821633249979586E-4 0
2.602016831980387E-2 0
-2.7937997845089895E-3 0
1.8977839483975495E-2 0
-6.577449831283215E-3 0
-4.4803391513796665E-3 0
5.861126224548343E-4 0
3.5910472366505514E-4 0
4.5715018848658364E-5 0
2.9002735816894822E-5 0
3.3261628796017254E-5 0
2.6800017832569095E-5 0
1.0737875159446964E-5 0
-6.789596208606777E-5 0
-7.502511092991797E-5 0
-2.338221370575263E-5 0
-3.9616840099976335E-5 0
-3.9976628537147654E-5 0
-5.408455003708221E-5 0
-2.8497713510591544E-5 0
-8.027309749031347E-5 0
2.8502293458136493E-5 0
1.9399033169845915E-4 0
6.697973771504598E-4 0
-4.669667148559164E-3 0
-6.904719828672565E-3 0
1.3926591105149783E-3 0
5.644291871968197E-1 0
1.1199887941227445E-3 0
2.7030252042154968E-2 0
-8.05510718840447E-3 0
-2.6820913258864395E-3 0
6.431492910153253E-4 0
3.790219546520256E-4 0
2.2655642348664976E-4 0
2.0502505769267834E-4 0
1.7621427004540358E-4 0
1.1505543718150087E-4 0
3.5539163533801626E-5 0
-4.025716662865427E-5 0
-1.1207287426086453E-4 0
-1.7984168589673936E-4 0
-1.9343177614730068E-4 0
-2.533421217274525E-4 0
-1.7454027797694785E-4 0
-3.439200972098831E-4 0
1.8717636646301624E-4 0
-2.6733460692154605E-4 0
-1.95739836537351E-3 0
-9.90567039738634E-3 0
2.9123205711812403E-2 0
-9.059980577725363E-3 0
1.897789814275843E-2 0
-2.7690725567688867E-3 0
1.900869886833241E-2 0
-6.541719623753815E-3 0
-4.440805117279612E-3 0
6.28654741445683E-4 0
4.0387317350728814E-4 0
9.164086006585379E-5 0
7.166775974010713E-5 0
6.647708313822763E-5 0
3.836201780505706E-5 0
3.3984164420886545E-5 0
1.934762510760995E-5 0
-3.090987891306808E-5 0
-6.044106957221968E-5 0
-7.611001459206027E-5 0
-7.473651425702154E-5 0
-8.426750805991141E-5 0
-5.88645151880295E-5 0
-1.0726089880080692E-4 0
1.3375818081907499E-5 0
1.3447877468923146E-4 0
7.244061351352365E-4 0
-4.884628879626821E-3 0
3.68869256044965E-2 0
1.1199887941227356E-3 0
5.645815094274842E-1 0
1.3122357430892398E-3 0
2.7253516872952122E-2 0
-7.81061873865471E-3 0
-2.426243664061628E-3 0
9.005165567669972E-4 0
6.2908780690514E-4 0
4.5544832204239796E-4 0
3.982975677663221E-4 0
2.88795487978682E-4 0
5.860843622417553E-5 0
-9.052439499565057E-5 0
-1.592299334541209E-4 0
-2.8856055376306735E-4 0
-3.5568747325011974E-4 0
-4.0178919778700433E-4 0
-4.1158907019859267E-4 0
-4.2711973020470486E-4 0
-3.776775143936398E-4 0
-2.167322601449034E-4 0
1.2036589024372469E-4 0
-3.0328870291173224E-3 0
-8.840180447960132E-3 0
-6.1903641833422444E-3 0
-6.577284165381214E-3 0
1.9008719118550302E-2 0
-2.7335794624795597E-3 0
1.9047837666377652E-2 0
-6.499544680039008E-3 0
-4.395840978800571E-3 0
6.762033243708642E-4 0
4.5375106562482725E-4 0
1.3865551018117178E-4 0
1.0744113429521731E-4 0
7.26020232524273E-5 0
4.9361725491605855E-5 0
2.524999238255908E-5 0
-3.5384580987780575E-5 0
-8.21228094509072E-5 0
-1.0129942621674173E-4 0
-1.0535845170301342E-4 0
-1.038443675232799E-4 0
-9.695283934513295E-5 0
-9.469509178249224E-5 0
-8.474380579773454E-5 0
-6.283414857677126E-5 0
2.7940482415558544E-4 0
5.544360794374382E-4 0
-1.1313661184804943E-2 0
2.7030252042155E-2 0
1.3122357430892324E-3 0
5.648076371761263E-1 0
1.5641757858996582E-3 0
2.7523812145186892E-2 0
-7.528869511380099E-3 0
-2.1414561585968756E-3 0
1.179438191853463E-3 0
8.847485363017612E-4 0
6.704332555160395E-4 0
5.076117352480889E-4 0
3.3565672663060094E-4 0
1.0738111596054745E-4 0
-1.7419349074373198E-4 0
-3.757498254445681E-4 0
-4.860985245406934E-4 0
-5.473475796677065E-4 0
-5.841743744064359E-4 0
-5.661721393820344E-4 0
-5.7192688519583E-4 0
-4.390798268402635E-4 0
-3.469176805378905E-4 0
2.7222401058708687E-4 0
-3.282935265239039E-3 0
7.558581374459606E-4 0
-4.480127807573543E-3 0
-6.542239231192847E-3 0
1.904631397883791E-2 0
-2.6937102294111626E-3 0
1.909140993659529E-2 0
-6.450038456110734E-3 0
-4.339620654721182E-3 0
7.387403877556819E-4 0
5.156906660078039E-4 0
1.880142672605453E-4 0
1.1386415788466885E-4 0
6.108234303318687E-5 0
2.4327937308386362E-5 0
-4.358450955593089E-5 0
-1.1067337178410299E-4 0
-1.3261966478358633E-4 0
-1.3529536802685485E-4 0
-1.2808999705894944E-4 0
-1.2020404473089052E-4 0
-1.0619161038364741E-4 0
-9.978774312847827E-5 0
-7.916422219770027E-5 0
-6.19045187881839E-5 0
3.13688834746743E-4 0
-3.979419691370851E-3 0
-8.055107188404503E-3 0
2.7253516872952157E-2 0
1.5641757858996478E-3 0
5.650851820377569E-1 0
1.8699367175234116E-3 0
2.786279344481811E-2 0
-7.159127819532757E-3 0
-1.7547182384793614E-3 0
1.5481267247206354E-3 0
1.2029074270237135E-3 0
8.333607538151582E-4 0
5.429701577356173E-4 0
1.9709708715706864E-4 0
-2.0510266564646365E-4 0
-5.097320981593355E-4 0
-6.652282623608405E-4 0
-7.475426884156325E-4 0
-7.645672693857867E-4 0
-7.373895432642501E-4 0
-6.786152447683906E-4 0
-5.983318861824073E-4 0
-4.8130248761698907E-4 0
-2.0709722321158157E-4 0
2.480295827463603E-4 0
4.391810347809304E-4 0
5.861438343920741E-4 0
-4.443093006241775E-3 0
-6.505928943835239E-3 0
1.908365499304787E-2 0
-2.6478463956220925E-3 0
1.915551851788159E-2 0
-6.364357822190942E-3 0
-4.2388098803893826E-3 0
8.354481187057448E-4 0
5.945618442474257E-4 0
2.017767515080796E-4 0
9.551531553545913E-5 0
4.355100534793997E-5 0
-6.230345682836081E-5 0
-1.5705958653482052E-4 0
-1.840619711391672E-4 0
-1.8764382427867836E-4 0
-1.6935364512773058E-4 0
-1.4307708421019592E-4 0
-1.1798053160949E-4 0
-1.0073446996877703E-4 0
-8.47968280947193E-5 0
-7.453199370770593E-5 0
-2.9248155909649505E-5 0
5.580989108154526E-4 0
-2.6820913258864057E-3 0
-7.810618738654726E-3 0
2.7523812145186902E-2 0
1.8699367175234077E-3 0
5.65453351713639E-1 0
2.334284507335277E-3 0
2.8437662370063586E-2 0
-6.503770399336449E-3 0
-1.1109765055932E-3 0
2.1058924023063816E-3 0
1.4992755946930533E-3 0
8.805756772282523E-4 0
3.095020711245267E-4 0
-3.195278537202312E-4 0
-7.984287717134673E-4 0
-1.0283541199884905E-3 0
-1.1128577974037174E-3 0
-1.0579994498506058E-3 0
-9.39713908872906E-4 0
-8.051832887591829E-4 0
-6.810685146320788E-4 0
-5.431807597446513E-4 0
-3.9978830377693957E-4 0
-6.168611357378152E-5 0
5.1639359492734E-6 0
3.585605784025574E-4 0
6.228791214895612E-4 0
-4.411602043077053E-3 0
-6.47423537809925E-3 0
1.913416670908593E-2 0
-2.5529502435092345E-3 0
1.930878929367426E-2 0
-6.174102973309433E-3 0
-4.0745227642203785E-3 0
9.472056515740714E-4 0
6.01505277312792E-4 0
1.673790196859921E-4 0
6.818410859828475E-5 0
-7.709003433063448E-5 0
-2.1948533555290833E-4 0
-2.8569580880768037E-4 0
-3.0292875962753985E-4 0
-2.4906859742691753E-4 0
-1.7542904878109044E-4 0
-1.215113799190663E-4 0
-9.522540507653033E-5 0
-8.23811481751285E-5 0
-6.86091708376321E-5 0
-5.122577264698696E-5 0
1.8242125676011512E-4 0
6.431492910153032E-4 0
-2.4262436640616115E-3 0
-7.528869511380112E-3 0
2.7862793444818117E-2 0
2.334284507335255E-3 0
5.661281042168809E-1 0
3.270243419340698E-3 0
2.9594676723468532E-2 0
-5.301492051640724E-3 0
-8.894169335061682E-5 0
2.630804811350055E-3 0
1.5818372794404692E-3 0
4.569709660626289E-4 0
-5.966616782979632E-4 0
-1.420666773210886E-3 0
-1.7897147176466244E-3 0
-1.7856097093890873E-3 0
-1.531556127476126E-3 0
-1.2131336112602053E-3 0
-9.386634974461104E-4 0
-7.381826282452553E-4 0
-5.755169390906241E-4 0
-4.2109344342770616E-4 0
-2.3538841504502835E-4 0
-2.1582972714725517E-5 0
4.4159374475131705E-5 0
3.930559657473079E-4 0
6.471494207815446E-4 0
-4.387864625413476E-3 0
-6.419175261258226E-3 0
1.9270888422582767E-2 0
-2.2934857884243875E-3 0
1.9667773086796375E-2 0
-5.833731750638405E-3 0
-3.914472055599027E-3 0
9.056329841917815E-4 0
5.648655903634324E-4 0
1.284988673392749E-4 0
-6.0302360051658084E-5 0
-3.3318510790732587E-4 0
-5.460282399647233E-4 0
-5.289102712833936E-4 0
-3.7326161842965927E-4 0
-2.111906168854116E-4 0
-1.1461676522145859E-4 0
-8.034330349977768E-5 0
-7.376235428648694E-5 0
-6.644666906501419E-5 0
-4.555804202522517E-5 0
-2.929941384685968E-5 0
3.790219546520404E-4 0
9.005165567669849E-4 0
-2.1414561585968647E-3 0
-7.159127819532757E-3 0
2.843766237006357E-2 0
3.2702434193406997E-3 0
5.67533881523662E-1 0
5.129262473109718E-3 0
3.1651514028561215E-2 0
-3.604355370862438E-3 0
7.039082296315289E-4 0
2.715434967929122E-3 0
8.192427057590385E-4 0
-1.0690346562484926E-3 0
-2.5102824898213766E-3 0
-3.0582424132248086E-3 0
-2.7840802974934036E-3 0
-2.159733905642241E-3 0
-1.5318550557959054E-3 0
-1.05803856455373E-3 0
-7.65151436803481E-4 0
-5.768857293965135E-4 0
-4.196830627352564E-4 0
-2.442425471684216E-4 0
-1.6493478884974972E-5 0
2.6178708366600406E-5 0
7.523791666771889E-5 0
4.1010989430770447E-4 0
6.635711450275304E-4 0
-4.33166673419242E-3 0
-6.253222652009902E-3 0
1.9631172237112186E-2 0
-1.698564592913991E-3 0
2.0360583957854346E-2 0
-5.479230710963777E-3 0
-3.994765252457008E-3 0
8.354825519907434E-4 0
5.810829570380105E-4 0
-4.949130059268612E-5 0
-7.200071307941116E-4 0
-1.0697578275963209E-3 0
-8.563590955906369E-4 0
-4.924272820542013E-4 0
-2.236728879044141E-4 0
-9.4817143762426E-5 0
-5.991588411278047E-5 0
-6.183663568670459E-5 0
-6.256327057821195E-5 0
-4.4674591707437346E-5 0
-3.241529655870943E-5 0
2.2655642348664114E-4 0
6.2908780690515E-4 0
1.1794381918534597E-3 0
-1.754718238479367E-3 0
-6.503770399336451E-3 0
2.959467672346854E-2 0
5.129262473109728E-3 0
5.701532190814422E-1 0
8.180523239699948E-3 0
3.466863993800855E-2 0
-1.9760085052628017E-3 0
6.750051262602722E-4 0
1.6022389462369128E-3 0
-2.004143213351593E-3 0
-4.464285315892463E-3 0
-4.63670042003073E-3 0
-3.919633391639109E-3 0
-2.7833536130308064E-3 0
-1.7864174069856112E-3 0
-1.1115668671620507E-3 0
-7.489250320455344E-4 0
-5.478992397628247E-4 0
-4.0185032188233625E-4 0
-2.3536623766064988E-4 0
3.8396183492036835E-6 0
2.9857411419604127E-5 0
5.21172898008134E-5 0
8.571859461800328E-5 0
4.2186007956557985E-4 0
7.154627737464809E-4 0
-4.174973974491312E-3 0
-5.865645697702275E-3 0
2.039808232790117E-2 0
-7.122907981903304E-4 0
2.1283866931122376E-2 0
-5.168846721258217E-3 0
-4.214760756532749E-3 0
1.001952918137503E-3 0
-2.690138184605426E-4 0
-1.62686432156709E-3 0
-1.6044728042573005E-3 0
-1.1075177667601746E-3 0
-5.136656768404623E-4 0
-1.858009081780495E-4 0
-6.350650376293834E-5 0
-3.949630420101972E-5 0
-4.745412117354539E-5 0
-5.5671433204958406E-5 0
-4.2447421769517E-5 0
-8.685224721240967E-6 0
2.050250576926806E-4 0
4.5544832204239265E-4 0
8.847485363017599E-4 0
1.5481267247206346E-3 0
-1.11097650559321E-3 0
-5.301492051640735E-3 0
3.165151402856121E-2 0
8.180523239699929E-3 0
5.738109106524422E-1 0
1.1854979085471342E-2 0
3.6187544978238916E-2 0
-2.5334855101575298E-3 0
-5.531466749292828E-4 0
-1.9403976138335462E-3 0
-5.470957218230227E-3 0
-5.746811307122918E-3 0
-4.637493961820366E-3 0
-3.0574656514902967E-3 0
-1.790806664476303E-3 0
-1.027155922957543E-3 0
-6.667805392142794E-4 0
-4.8249044361616645E-4 0
-3.600714158224895E-4 0
-2.1622458442276533E-4 0
2.9183348870594832E-5 0
2.4481596586119727E-5 0
4.9074513564291725E-5 0
5.691976960436289E-5 0
9.498850389310864E-5 0
4.717319235141108E-4 0
8.555877208142313E-4 0
-3.8821797452609007E-3 0
-5.271592866773591E-3 0
2.148086061741567E-2 0
3.184702842261784E-4 0
2.1301650200896482E-2 0
-5.466046777070598E-3 0
-3.918460072750211E-3 0
-2.3745410663152803E-5 0
-1.6331804768730236E-3 0
-1.823980969049523E-3 0
-9.273263328127775E-4 0
-3.6594742062537815E-4 0
-1.273258760878527E-4 0
-3.4728919072039004E-5 0
-1.7234320841692133E-5 0
-3.1724727535623336E-5 0
-4.398598881082858E-5 0
-3.7431212368045154E-5 0
-1.7882498154309467E-4 0
1.762142700454039E-4 0
3.9829756776632347E-4 0
6.704332555160403E-4 0
1.2029074270237144E-3 0
2.105892402306391E-3 0
-8.894169335061186E-5 0
-3.6043553708624363E-3 0
3.466863993800854E-2 0
1.185497908547131E-2 0
5.785190507147889E-1 0
1.4560306499163714E-2 0
3.808534792052847E-2 0
-3.2171758014370153E-3 0
-4.7728919001759846E-3 0
-5.651927144477692E-3 0
-5.469834147769521E-3 0
-4.465973487797382E-3 0
-2.5076275835969664E-3 0
-1.4240296821292707E-3 0
-7.945451207897698E-4 0
-5.136940804262555E-4 0
-3.721637617567256E-4 0
-2.9174455405010514E-4 0
-1.8258484787185087E-4 0
-9.150375847062513E-5 0
1.1963036511505186E-5 0
3.159651080872223E-5 0
4.4724985679025414E-5 0
5.827120459713092E-5 0
1.2789266448254982E-4 0
5.625584093272347E-4 0
9.989048712635404E-4 0
-3.605948269558605E-3 0
-4.663103243083771E-3 0
2.1833094440278502E-2 0
-1.3863388280213287E-5 0
2.255173697840333E-2 0
-4.873314815537071E-3 0
-4.081843190902316E-3 0
-5.54928042354095E-4 0
-7.753619959519994E-4 0
-4.3727430972452004E-4 0
-1.5502246087475044E-4 0
-3.642814502558252E-5 0
9.838188214577817E-6 0
1.3500370110167717E-5 0
-8.485948468521944E-6 0
-2.3617683574983853E-5 0
-2.635558292929235E-5 0
-2.660241690535837E-4 0
1.1505543718149847E-4 0
2.887954879786828E-4 0
5.076117352480865E-4 0
8.333607538151568E-4 0
1.4992755946930474E-3 0
2.630804811350056E-3 0
7.039082296315343E-4 0
-1.976008505262797E-3 0
3.6187544978238916E-2 0
1.4560306499163709E-2 0
5.79498511378312E-1 0
1.4870368576782138E-2 0
3.881527638029202E-2 0
-5.374761536213505E-3 0
-4.773898831234157E-3 0
-1.9382015325535144E-3 0
-2.0081000658941175E-3 0
-1.0633740987611017E-3 0
-6.036237575867749E-4 0
-3.120619277188389E-4 0
-2.121749657605272E-4 0
-1.679762799196509E-4 0
-1.638489853185471E-4 0
-1.174970345023324E-4 0
-1.1267443482732361E-4 0
-6.594270712168984E-5 0
3.460661709109768E-5 0
4.406249936717011E-5 0
4.80594917983097E-5 0
7.91430452318556E-5 0
1.683431980574145E-4 0
6.220776561425766E-4 0
1.071148719605068E-3 0
-3.858517519117209E-3 0
-4.966005556714653E-3 0
2.2871395181948098E-2 0
3.7667166043401734E-4 0
2.456673347612978E-2 0
-5.192780038018326E-3 0
-4.419377557075408E-3 0
6.478268313108869E-4 0
3.417117746221371E-4 0
7.650290506891927E-5 0
6.105296847782987E-5 0
6.608170343895358E-5 0
3.23390737178442E-5 0
3.290617173951963E-5 0
1.9330233415358483E-5 0
-8.207700912217164E-5 0
-7.983367183174538E-4 0
3.5539163533803435E-5 0
5.860843622417342E-5 0
3.3565672663060246E-4 0
5.429701577356182E-4 0
8.805756772282548E-4 0
1.5818372794404664E-3 0
2.71543496792912E-3 0
6.750051262602749E-4 0
-2.533485510157527E-3 0
3.8085347920528465E-2 0
1.4870368576782107E-2 0
5.887672493850292E-1 0
1.716828689601445E-2 0
3.881565211037301E-2 0
-3.218881868997146E-3 0
-5.490115844042118E-4 0
1.5949374954975955E-3 0
8.297426813225552E-4 0
4.439631062030388E-4 0
3.240293062411444E-4 0
1.8191500885737436E-4 0
1.233170763131751E-4 0
-1.0489290467798548E-4 0
-3.601327460562392E-5 0
-1.1267443482732172E-4 0
-7.697836589429195E-5 0
1.8725172437392708E-5 0
3.054921850699628E-5 0
3.7350788543252626E-5 0
5.992327565154308E-5 0
6.721993022686203E-5 0
7.128680156013761E-5 0
3.4541678942369625E-4 0
6.457096807219738E-4 0
-4.418501293106158E-3 0
-5.192973019081837E-3 0
2.4566733476129785E-2 0
3.766716604340312E-4 0
2.2871341722450318E-2 0
-4.965762814598629E-3 0
-3.8591099002632016E-3 0
1.0722147552609264E-3 0
6.204908161643652E-4 0
1.7040729135596908E-4 0
7.667752794313071E-5 0
5.088723154429046E-5 0
4.029195661430048E-5 0
3.9001361732646754E-5 0
-7.175136534598746E-5 0
-7.983367183174424E-4 0
-4.02571666286556E-5 0
-9.052439499564808E-5 0
1.0738111596054177E-4 0
1.9709708715706358E-4 0
3.095020711245223E-4 0
4.5697096606263214E-4 0
8.192427057590435E-4 0
1.6022389462369156E-3 0
-5.531466749292775E-4 0
-3.2171758014370336E-3 0
3.8815276380292E-2 0
1.7168286896014462E-2 0
5.887672493850292E-1 0
1.4868502803525892E-2 0
3.809381978740254E-2 0
-2.5539505420673443E-3 0
7.107993232851141E-4 0
2.6650622748308483E-3 0
1.641486858739857E-3 0
8.202183617976631E-4 0
5.946965258501506E-4 0
3.003591629993218E-4 0
7.508772859501847E-5 0
3.349509498231482E-5 0
-9.10971648949289E-5 0
-2.4607396042433284E-5 0
-2.414444022874848E-5 0
-7.507699382842982E-6 0
1.2008161268436979E-5 0
1.1580182122947209E-5 0
-3.814362903584463E-5 0
-1.535740296043041E-4 0
-4.383073879107382E-4 0
-7.747584859998022E-4 0
-5.551986820648923E-4 0
-4.081865586282897E-3 0
-4.873137600112286E-3 0
2.255169928454428E-2 0
-1.5513045164692104E-5 0
2.1839795587064604E-2 0
-4.678532375220074E-3 0
-3.5795171768088106E-3 0
9.621472046962223E-4 0
6.058174692211814E-4 0
8.389414256264434E-5 0
9.71493101488763E-5 0
1.5124160514483393E-5 0
4.970100399246422E-5 0
5.78334995922132E-6 0
-2.714813189444318E-4 0
-1.1207287426086105E-4 0
-1.592299334541226E-4 0
-1.7419349074372645E-4 0
-2.0510266564645682E-4 0
-3.195278537202152E-4 0
-5.966616782979485E-4 0
-1.069034656248494E-3 0
-2.004143213351587E-3 0
-1.940397613833498E-3 0
-4.772891900175968E-3 0
-5.374761536213486E-3 0
3.881565211037305E-2 0
1.4868502803525911E-2 0
5.795084930384736E-1 0
1.4526425159664572E-2 0
3.626181245187613E-2 0
-2.10152979508342E-3 0
8.789836003904413E-4 0
2.4217073934440438E-3 0
1.716616679647395E-3 0
6.364649512451509E-4 0
6.607854102947007E-4 0
1.9430651283053427E-4 0
1.571124964861461E-4 0
2.7337140263134535E-5 0
-3.729832356925537E-5 0
-4.303818981574903E-5 0
-3.160073655812078E-5 0
-1.7646325843590083E-5 0
-3.422763124278178E-5 0
-1.2786530386538377E-4 0
-3.6547840592871146E-4 0
-9.276490415221026E-4 0
-1.8238526073432874E-3 0
-1.6331394654219911E-3 0
-2.3382112864639442E-5 0
-3.9192647501040834E-3 0
-5.465875621569966E-3 0
2.1308240625555454E-2 0
2.921297545816233E-4 0
2.15411230626647E-2 0
-5.374857892444739E-3 0
-3.7378903233486437E-3 0
6.844786346664699E-4 0
6.472402866705427E-4 0
-6.118934707052927E-5 0
1.7584192680887182E-4 0
-2.2899029625148694E-5 0
5.293589372345444E-5 0
-1.5404584654755355E-4 0
-1.7984168589673988E-4 0
-2.885605537630609E-4 0
-3.757498254445667E-4 0
-5.097320981593345E-4 0
-7.984287717134665E-4 0
-1.4206667732108893E-3 0
-2.5102824898213787E-3 0
-4.4642853158924755E-3 0
-5.470957218230253E-3 0
-5.651927144477688E-3 0
-4.773898831234141E-3 0
-3.21888186899714E-3 0
3.809381978740255E-2 0
1.4526425159664555E-2 0
5.786209398866162E-1 0
1.1643146027762749E-2 0
3.501984224372726E-2 0
-4.092792617620997E-3 0
4.991542789212084E-4 0
1.4851221463331715E-3 0
1.7768536898506862E-3 0
2.1130403527688636E-4 0
6.935834295249994E-4 0
6.526380284438231E-5 0
8.90383603153518E-6 0
-3.6572643401009426E-5 0
-5.6560299739288234E-5 0
-4.836423400373506E-5 0
-3.879219949250274E-5 0
-6.40815747587843E-5 0
-1.8524971042934351E-4 0
-5.1411193808115E-4 0
-1.107246437671247E-3 0
-1.6044860634619202E-3 0
-1.627086949643765E-3 0
-2.698657314672962E-4 0
1.003895956972735E-3 0
-4.215179025925061E-3 0
-5.1840298290661176E-3 0
2.1344234443760303E-2 0
-8.50458249842499E-4 0
2.0636366019715892E-2 0
-6.202655880475336E-3 0
-3.7686588831233533E-3 0
2.9101843340594393E-4 0
8.060426035619518E-4 0
-2.1134861230633347E-4 0
2.3467851680506656E-4 0
-3.843318229781564E-5 0
-7.320110237776187E-5 0
-1.934317761473015E-4 0
-3.556874732501241E-4 0
-4.860985245406929E-4 0
-6.652282623608413E-4 0
-1.0283541199884933E-3 0
-1.789714717646624E-3 0
-3.0582424132248017E-3 0
-4.6367004200307295E-3 0
-5.746811307122936E-3 0
-5.469834147769524E-3 0
-1.938201532553512E-3 0
-5.490115844042135E-4 0
-2.5539505420673577E-3 0
3.626181245187614E-2 0
1.1643146027762731E-2 0
5.742406238457683E-1 0
7.472313846149932E-3 0
3.2641986498453665E-2 0
-6.511946479112262E-3 0
1.944377248322761E-4 0
3.1231146841279684E-4 0
1.8939043767434878E-3 0
-2.0430807035729236E-4 0
4.929773248750347E-4 0
-2.8365681732041082E-5 0
-5.12601060783059E-5 0
-5.833222127606343E-5 0
-6.171420340532615E-5 0
-6.0120552015689615E-5 0
-9.477814659709817E-5 0
-2.2379995649397783E-4 0
-4.923133852944303E-4 0
-8.563758502531261E-4 0
-1.0699951411183145E-3 0
-7.195111857795536E-4 0
-4.801712722004465E-5 0
5.776883754635071E-4 0
8.362381544195467E-4 0
-3.96877346375628E-3 0
-5.582677105909799E-3 0
2.059885315385642E-2 0
-2.115356189506337E-3 0
2.0234299520720447E-2 0
-7.0029498230402285E-3 0
-3.5211455409511674E-3 0
-9.291243070505473E-5 0
1.0079724631655094E-3 0
-2.9797005748787665E-4 0
1.731534051590836E-4 0
1.0365930319201547E-4 0
-2.5334212172745195E-4 0
-4.017891977869992E-4 0
-5.473475796677059E-4 0
-7.475426884156308E-4 0
-1.112857797403715E-3 0
-1.7856097093890794E-3 0
-2.784080297493397E-3 0
-3.919633391639103E-3 0
-4.637493961820373E-3 0
-4.465973487797371E-3 0
-2.008100065894116E-3 0
1.594937495497592E-3 0
7.107993232851113E-4 0
-2.1015297950834296E-3 0
3.5019842243727256E-2 0
7.472313846149952E-3 0
5.713274657328218E-1 0
3.460605320395652E-3 0
3.168729798358799E-2 0
-8.839803208712948E-3 0
5.446066619362404E-4 0
-7.685112523645866E-4 0
1.9385501897886785E-3 0
-3.2164906848921167E-4 0
5.899014864423385E-6 0
-2.6942685096207758E-5 0
-7.345228396464788E-5 0
-7.479497887920654E-5 0
-7.985420832208025E-5 0
-1.145491323973802E-4 0
-2.1118114636390403E-4 0
-3.732565703392833E-4 0
-5.290055656786284E-4 0
-5.456169685130733E-4 0
-3.3391332493853276E-4 0
-6.23918179742469E-5 0
1.3326189352910913E-4 0
5.637318277041694E-4 0
8.695167793918101E-4 0
-3.7699254070682644E-3 0
-6.170702233232365E-3 0
2.0270873839803704E-2 0
-3.197960783745875E-3 0
2.045084356191837E-2 0
-7.769086101638516E-3 0
-3.056594789995314E-3 0
-4.503150427596791E-4 0
1.0953517269282115E-3 0
-2.339893297177257E-4 0
-2.9635371252787016E-4 0
-1.745402779769465E-4 0
-4.115890701985882E-4 0
-5.841743744064321E-4 0
-7.645672693857861E-4 0
-1.0579994498506023E-3 0
-1.5315561274761344E-3 0
-2.1597339056422457E-3 0
-2.783353613030809E-3 0
-3.0574656514903023E-3 0
-2.5076275835969578E-3 0
-1.0633740987610993E-3 0
8.297426813225477E-4 0
2.665062274830849E-3 0
8.789836003904373E-4 0
-4.092792617621011E-3 0
3.264198649845369E-2 0
3.4606053203956257E-3 0
5.699673771712608E-1 0
1.0589996873909724E-4 0
3.213948930954484E-2 0
-1.1014653338094538E-2 0
1.3070220915130442E-3 0
-1.4955028230507557E-3 0
1.4417236508152402E-3 0
-5.8093364631353195E-5 0
-7.972815923718514E-5 0
-5.3086363030371335E-5 0
-8.118602228851974E-5 0
-9.599667989917398E-5 0
-1.2170880432128574E-4 0
-1.7541173848105508E-4 0
-2.4909602777865576E-4 0
-3.0281675654069285E-4 0
-2.862005546760734E-4 0
-2.1861918771203507E-4 0
-7.457239078767214E-5 0
6.258499523028253E-5 0
1.688752646035159E-4 0
6.439612521290682E-4 0
7.757740479604037E-4 0
-3.6682643501989745E-3 0
-6.923796827586787E-3 0
2.0488735550843806E-2 0
-4.196469724831104E-3 0
2.116813412023147E-2 0
-8.658500262441192E-3 0
-2.4844391086774357E-3 0
-6.395540146784172E-4 0
8.883798480481141E-4 0
6.913164640888031E-4 0
-3.4392009720987866E-4 0
-4.271197302047088E-4 0
-5.661721393820337E-4 0
-7.373895432642505E-4 0
-9.397139088729137E-4 0
-1.2131336112602155E-3 0
-1.5318550557959145E-3 0
-1.786417406985622E-3 0
-1.7908066644763021E-3 0
-1.4240296821292717E-3 0
-6.036237575867779E-4 0
4.439631062030333E-4 0
1.6414868587398637E-3 0
2.421707393444043E-3 0
4.991542789211893E-4 0
-6.5119464791122275E-3 0
3.1687297983587964E-2 0
1.0589996873908382E-4 0
5.704340800999196E-1 0
-2.9896372153308333E-3 0
3.3792378944248004E-2 0
-1.3270270765560373E-2 0
1.884019284109007E-3 0
-1.2877627732817715E-3 0
5.929787602945138E-4 0
2.8470154116140158E-5 0
-1.0497595563752182E-4 0
-8.831754357382762E-5 0
-9.84489652085455E-5 0
-1.1800003883703416E-4 0
-1.428845771295478E-4 0
-1.6943412013211074E-4 0
-1.87656189203691E-4 0
-1.8355913653196065E-4 0
-1.5792199476266603E-4 0
-6.492867365681882E-5 0
4.9085899815652966E-5 0
9.367333156643365E-5 0
1.5866055660394414E-4 0
7.704353958113384E-4 0
4.110661201594082E-4 0
-3.4282976755432956E-3 0
-7.714281669011475E-3 0
2.1189523786079408E-2 0
-5.4204313874885056E-3 0
2.239962361683676E-2 0
-9.781084670523578E-3 0
-2.050227851122008E-3 0
-4.383201748264609E-4 0
-4.134176024167092E-4 0
1.8717636646301195E-4 0
-3.776775143936362E-4 0
-5.719268851958317E-4 0
-6.786152447683989E-4 0
-8.051832887591794E-4 0
-9.386634974461094E-4 0
-1.0580385645537341E-3 0
-1.1115668671620586E-3 0
-1.027155922957537E-3 0
-7.945451207897745E-4 0
-3.1206192771884134E-4 0
3.240293062411466E-4 0
8.202183617976634E-4 0
1.7166166796473972E-3 0
1.4851221463331617E-3 0
1.9443772483228677E-4 0
-8.839803208712969E-3 0
3.213948930954487E-2 0
-2.989637215330871E-3 0
5.724422380456496E-1 0
-6.428205304474744E-3 0
3.6324264295002635E-2 0
-1.520750799537676E-2 0
8.215967388446242E-4 0
4.109211384371298E-4 0
1.9378000746318128E-4 0
1.389869357797846E-5 0
-8.32125314836904E-5 0
-9.977350767630432E-5 0
-1.0846633924143361E-4 0
-1.1939469915473251E-4 0
-1.2857571194077602E-4 0
-1.3508512016771666E-4 0
-1.3324218502323138E-4 0
-1.0989452862768133E-4 0
-4.1237258981111775E-5 0
1.9916085702343877E-5 0
6.33102195597949E-5 0
1.518866565151884E-4 0
3.147214447715155E-5 0
8.997853604626938E-4 0
-1.773761702514137E-5 0
-3.008370568343629E-3 0
-8.6343205218458E-3 0
2.2407343186173965E-2 0
-7.110167580430527E-3 0
2.4016054856362434E-2 0
-1.0807369257818228E-2 0
-2.58673284864986E-3 0
-2.235515371663062E-3 0
-2.673346069215457E-4 0
-2.16732260144906E-4 0
-4.3907982684026443E-4 0
-5.983318861824145E-4 0
-6.810685146320775E-4 0
-7.381826282452485E-4 0
-7.651514368034842E-4 0
-7.489250320455334E-4 0
-6.667805392142834E-4 0
-5.136940804262519E-4 0
-2.1217496576053145E-4 0
1.8191500885738092E-4 0
5.94696525850145E-4 0
6.364649512451532E-4 0
1.7768536898506804E-3 0
3.1231146841280747E-4 0
5.44606661936224E-4 0
-1.1014653338094519E-2 0
3.379237894424797E-2 0
-6.428205304474741E-3 0
5.755146693379768E-1 0
-1.0233787227769433E-2 0
3.786876243484927E-2 0
-1.406598803555334E-2 0
-5.317418796261099E-3 0
6.696306237697398E-4 0
1.3445557274271245E-4 0
-6.284100743563019E-5 0
-8.070249684502141E-5 0
-9.120892529628713E-5 0
-9.818454013474156E-5 0
-1.028608147320231E-4 0
-1.0552975574945118E-4 0
-1.0052580271592359E-4 0
-8.261574879934898E-5 0
-3.7119447701115026E-5 0
2.709344027564162E-5 0
4.610468807818058E-5 0
4.375750391434702E-5 0
2.2673365565809944E-4 0
-1.5827865270352697E-4 0
1.051668658133025E-3 0
-4.212210953419792E-4 0
-2.4686299645478396E-3 0
-9.774679290359469E-3 0
2.401760072134459E-2 0
-8.97214033650024E-3 0
2.4862933663691713E-2 0
-1.0279498044483436E-2 0
-1.4344009492641481E-2 0
-1.9573983653735044E-3 0
1.203658902437265E-4 0
-3.469176805378948E-4 0
-4.813024876169864E-4 0
-5.431807597446531E-4 0
-5.755169390906288E-4 0
-5.768857293965088E-4 0
-5.478992397628254E-4 0
-4.8249044361617355E-4 0
-3.721637617567238E-4 0
-1.6797627991965475E-4 0
1.233170763131777E-4 0
3.003591629993193E-4 0
6.607854102947065E-4 0
2.1130403527688343E-4 0
1.8939043767435034E-3 0
-7.685112523645986E-4 0
1.3070220915130544E-3 0
-1.3270270765560387E-2 0
3.632426429500263E-2 0
-1.023378722776946E-2 0
5.789401153028174E-1 0
-1.2403482299952953E-2 0
3.6247039320132304E-2 0
-1.0413258839641221E-2 0
-4.66972485963222E-3 0
7.244077012688763E-4 0
2.7942845977686667E-4 0
-6.241390564755051E-5 0
-7.679332346478253E-5 0
-7.433323382324532E-5 0
-7.718821530938522E-5 0
-7.88606558942569E-5 0
-7.504190194489457E-5 0
-6.104786472525096E-5 0
-2.98133150995758E-5 0
2.0316195359704884E-5 0
3.8015399788299275E-5 0
5.5896567267361483E-5 0
-5.836843811127049E-6 0
2.54048231194942E-4 0
-2.8167132414156715E-4 0
1.1060912923956591E-3 0
-6.338274241785273E-4 0
-2.0479694602291796E-3 0
-1.0806856612904142E-2 0
2.4862907084809236E-2 0
-8.419929771232751E-3 0
2.3598705296848706E-2 0
4.057311795119882E-2 0
-9.90567039738634E-3 0
-3.032887029117319E-3 0
2.722240105870879E-4 0
-2.0709722321157943E-4 0
-3.9978830377694185E-4 0
-4.210934434277087E-4 0
-4.196830627352611E-4 0
-4.0185032188234254E-4 0
-3.6007141582248246E-4 0
-2.9174455405011425E-4 0
-1.6384898531854417E-4 0
-1.0489290467799025E-4 0
7.508772859502327E-5 0
1.9430651283053812E-4 0
6.935834295250029E-4 0
-2.0430807035730678E-4 0
1.9385501897886933E-3 0
-1.4955028230507665E-3 0
1.8840192841090026E-3 0
-1.5207507995376778E-2 0
3.7868762434849296E-2 0
-1.240348229995303E-2 0
5.794401627896133E-1 0
-7.7132871942573985E-3 0
2.8181863680189063E-2 0
-6.904720237657009E-3 0
-4.884567386801514E-3 0
5.546101359137512E-4 0
3.139081493748723E-4 0
-2.9227166239225846E-5 0
-5.1825714793676146E-5 0
-4.7240926812051884E-5 0
-4.771423866178363E-5 0
-4.61328425216226E-5 0
-4.0032585063653E-5 0
-2.529565123695148E-5 0
-8.01585526450312E-5 0
-7.36698218231307E-5 0
4.7233960690258E-6 0
5.553736721229079E-5 0
-3.474800722606714E-5 0
1.7619349278940184E-4 0
-2.3230709679471752E-4 0
8.889806296868507E-4 0
-4.3834214684992977E-4 0
-2.586951082002298E-3 0
-1.0279673253793508E-2 0
2.359864480569976E-2 0
-5.383594699459906E-3 0
-3.8821633249978664E-4 0
2.912320571181241E-2 0
-8.840180447960122E-3 0
-3.2829352652390346E-3 0
2.480295827463563E-4 0
-6.1686113573783E-5 0
-2.353884150450244E-4 0
-2.442425471684218E-4 0
-2.3536623766065465E-4 0
-2.162245844227633E-4 0
-1.8258484787185154E-4 0
-1.1749703450233722E-4 0
-3.6013274605619984E-5 0
3.349509498231115E-5 0
1.5711249648614714E-4 0
6.526380284437734E-5 0
4.929773248750364E-4 0
-3.21649068489215E-4 0
1.4417236508152543E-3 0
-1.2877627732817852E-3 0
8.215967388446307E-4 0
-1.4065988035553334E-2 0
3.62470393201323E-2 0
-7.713287194257404E-3 0
5.768268779715586E-1 0
