%%MatrixMarket matrix array real general
%Created with the Wolfram Language : www.wolfram.com
50 50
   2.0000000000000001E-01
   2.0000000000000001E-01
   2.0000000000000001E-01
   2.0000000000000001E-01
   2.0000000000000001E-01
   2.0000000000000001E-01
   2.0000000000000001E-01
   2.0000000000000001E-01
   2.0000000000000001E-01
   2.0000000000000001E-01
   2.0000000000000001E-01
   2.0000000000000001E-01
   2.0000000000000001E-01
   2.0000000000000001E-01
   2.0000000000000001E-01
   2.0000000000000001E-01
   2.0000000000000001E-01
   2.0000000000000001E-01
   2.0000000000000001E-01
   2.0000000000000001E-01
   2.0000000000000001E-01
   2.0000000000000001E-01
   2.0000000000000001E-01
   2.0000000000000001E-01
   2.0000000000000001E-01
   0.0000000000000000E+00
   0.0000000000000000E+00
   0.0000000000000000E+00
   0.0000000000000000E+00
   0.0000000000000000E+00
   0.0000000000000000E+00
   0.0000000000000000E+00
   0.0000000000000000E+00
   0.0000000000000000E+00
   0.0000000000000000E+00
   0.0000000000000000E+00
   0.0000000000000000E+00
   0.0000000000000000E+00
   0.0000000000000000E+00
   0.0000000000000000E+00
   0.0000000000000000E+00
   0.0000000000000000E+00
   0.0000000000000000E+00
   0.0000000000000000E+00
   0.0000000000000000E+00
   0.0000000000000000E+00
   0.0000000000000000E+00
   0.0000000000000000E+00
   0.0000000000000000E+00
   0.0000000000000000E+00
   2.8284271247461906E-01
   2.7395668855086303E-01
   2.4785695834323451E-01
   2.0618346388877201E-01
   1.5155470410844102E-01
   8.7403204889764219E-02
   1.7759840861361537E-02
  -5.2999439284486249E-02
  -1.2042856974178685E-01
  -1.8029073025691314E-01
  -2.2882456112707372E-01
  -2.6298050326375244E-01
  -2.8061241320573344E-01
  -2.8061241320573344E-01
  -2.6298050326375244E-01
  -2.2882456112707372E-01
  -1.8029073025691314E-01
  -1.2042856974178685E-01
  -5.2999439284486249E-02
   1.7759840861361537E-02
   8.7403204889764219E-02
   1.5155470410844102E-01
   2.0618346388877201E-01
   2.4785695834323451E-01
   2.7395668855086303E-01
   0.0000000000000000E+00
   0.0000000000000000E+00
   0.0000000000000000E+00
   0.0000000000000000E+00
   0.0000000000000000E+00
   0.0000000000000000E+00
   0.0000000000000000E+00
   0.0000000000000000E+00
   0.0000000000000000E+00
   0.0000000000000000E+00
   0.0000000000000000E+00
   0.0000000000000000E+00
   0.0000000000000000E+00
   0.0000000000000000E+00
   0.0000000000000000E+00
   0.0000000000000000E+00
   0.0000000000000000E+00
   0.0000000000000000E+00
   0.0000000000000000E+00
   0.0000000000000000E+00
   0.0000000000000000E+00
   0.0000000000000000E+00
   0.0000000000000000E+00
   0.0000000000000000E+00
   0.0000000000000000E+00
   2.8284271247461906E-01
   2.4785695834323451E-01
   1.5155470410844102E-01
   1.7759840861361537E-02
  -1.2042856974178685E-01
  -2.2882456112707372E-01
  -2.8061241320573344E-01
  -2.6298050326375244E-01
  -1.8029073025691314E-01
  -5.2999439284486249E-02
   8.7403204889764219E-02
   2.0618346388877201E-01
   2.7395668855086303E-01
   2.7395668855086303E-01
   2.0618346388877201E-01
   8.7403204889764219E-02
  -5.2999439284486249E-02
  -1.8029073025691314E-01
  -2.6298050326375244E-01
  -2.8061241320573344E-01
  -2.2882456112707372E-01
  -1.2042856974178685E-01
   1.7759840861361537E-02
   1.5155470410844102E-01
   2.4785695834323451E-01
   0.0000000000000000E+00
   0.0000000000000000E+00
   0.0000000000000000E+00
   0.0000000000000000E+00
   0.0000000000000000E+00
   0.0000000000000000E+00
   0.0000000000000000E+00
   0.0000000000000000E+00
   0.0000000000000000E+00
   0.0000000000000000E+00
   0.0000000000000000E+00
   0.0000000000000000E+00
   0.0000000000000000E+00
   0.0000000000000000E+00
   0.0000000000000000E+00
   0.0000000000000000E+00
   0.0000000000000000E+00
   0.0000000000000000E+00
   0.0000000000000000E+00
   0.0000000000000000E+00
   0.0000000000000000E+00
   0.0000000000000000E+00
   0.0000000000000000E+00
   0.0000000000000000E+00
   0.0000000000000000E+00
   2.8284271247461906E-01
   2.0618346388877201E-01
   1.7759840861361537E-02
  -1.8029073025691314E-01
  -2.8061241320573344E-01
  -2.2882456112707372E-01
  -5.2999439284486249E-02
   1.5155470410844102E-01
   2.7395668855086303E-01
   2.4785695834323451E-01
   8.7403204889764219E-02
  -1.2042856974178685E-01
  -2.6298050326375244E-01
  -2.6298050326375244E-01
  -1.2042856974178685E-01
   8.7403204889764219E-02
   2.4785695834323451E-01
   2.7395668855086303E-01
   1.5155470410844102E-01
  -5.2999439284486249E-02
  -2.2882456112707372E-01
  -2.8061241320573344E-01
  -1.8029073025691314E-01
   1.7759840861361537E-02
   2.0618346388877201E-01
   0.0000000000000000E+00
   0.0000000000000000E+00
   0.0000000000000000E+00
   0.0000000000000000E+00
   0.0000000000000000E+00
   0.0000000000000000E+00
   0.0000000000000000E+00
   0.0000000000000000E+00
   0.0000000000000000E+00
   0.0000000000000000E+00
   0.0000000000000000E+00
   0.0000000000000000E+00
   0.0000000000000000E+00
   0.0000000000000000E+00
   0.0000000000000000E+00
   0.0000000000000000E+00
   0.0000000000000000E+00
   0.0000000000000000E+00
   0.0000000000000000E+00
   0.0000000000000000E+00
   0.0000000000000000E+00
   0.0000000000000000E+00
   0.0000000000000000E+00
   0.0000000000000000E+00
   0.0000000000000000E+00
   2.8284271247461906E-01
   1.5155470410844102E-01
  -1.2042856974178685E-01
  -2.8061241320573344E-01
  -1.8029073025691314E-01
   8.7403204889764219E-02
   2.7395668855086303E-01
   2.0618346388877201E-01
  -5.2999439284486249E-02
  -2.6298050326375244E-01
  -2.2882456112707372E-01
   1.7759840861361537E-02
   2.4785695834323451E-01
   2.4785695834323451E-01
   1.7759840861361537E-02
  -2.2882456112707372E-01
  -2.6298050326375244E-01
  -5.2999439284486249E-02
   2.0618346388877201E-01
   2.7395668855086303E-01
   8.7403204889764219E-02
  -1.8029073025691314E-01
  -2.8061241320573344E-01
  -1.2042856974178685E-01
   1.5155470410844102E-01
   0.0000000000000000E+00
   0.0000000000000000E+00
   0.0000000000000000E+00
   0.0000000000000000E+00
   0.0000000000000000E+00
   0.0000000000000000E+00
   0.0000000000000000E+00
   0.0000000000000000E+00
   0.0000000000000000E+00
   0.0000000000000000E+00
   0.0000000000000000E+00
   0.0000000000000000E+00
   0.0000000000000000E+00
   0.0000000000000000E+00
   0.0000000000000000E+00
   0.0000000000000000E+00
   0.0000000000000000E+00
   0.0000000000000000E+00
   0.0000000000000000E+00
   0.0000000000000000E+00
   0.0000000000000000E+00
   0.0000000000000000E+00
   0.0000000000000000E+00
   0.0000000000000000E+00
   0.0000000000000000E+00
   2.8284271247461906E-01
   8.7403204889764219E-02
  -2.2882456112707372E-01
  -2.2882456112707372E-01
   8.7403204889764219E-02
   2.8284271247461906E-01
   8.7403204889764219E-02
  -2.2882456112707372E-01
  -2.2882456112707372E-01
   8.7403204889764219E-02
   2.8284271247461906E-01
   8.7403204889764219E-02
  -2.2882456112707372E-01
  -2.2882456112707372E-01
   8.7403204889764219E-02
   2.8284271247461906E-01
   8.7403204889764219E-02
  -2.2882456112707372E-01
  -2.2882456112707372E-01
   8.7403204889764219E-02
   2.8284271247461906E-01
   8.7403204889764219E-02
  -2.2882456112707372E-01
  -2.2882456112707372E-01
   8.7403204889764219E-02
   0.0000000000000000E+00
   0.0000000000000000E+00
   0.0000000000000000E+00
   0.0000000000000000E+00
   0.0000000000000000E+00
   0.0000000000000000E+00
   0.0000000000000000E+00
   0.0000000000000000E+00
   0.0000000000000000E+00
   0.0000000000000000E+00
   0.0000000000000000E+00
   0.0000000000000000E+00
   0.0000000000000000E+00
   0.0000000000000000E+00
   0.0000000000000000E+00
   0.0000000000000000E+00
   0.0000000000000000E+00
   0.0000000000000000E+00
   0.0000000000000000E+00
   0.0000000000000000E+00
   0.0000000000000000E+00
   0.0000000000000000E+00
   0.0000000000000000E+00
   0.0000000000000000E+00
   0.0000000000000000E+00
   2.8284271247461906E-01
   1.7759840861361537E-02
  -2.8061241320573344E-01
  -5.2999439284486249E-02
   2.7395668855086303E-01
   8.7403204889764219E-02
  -2.6298050326375244E-01
  -1.2042856974178685E-01
   2.4785695834323451E-01
   1.5155470410844102E-01
  -2.2882456112707372E-01
  -1.8029073025691314E-01
   2.0618346388877201E-01
   2.0618346388877201E-01
  -1.8029073025691314E-01
  -2.2882456112707372E-01
   1.5155470410844102E-01
   2.4785695834323451E-01
  -1.2042856974178685E-01
  -2.6298050326375244E-01
   8.7403204889764219E-02
   2.7395668855086303E-01
  -5.2999439284486249E-02
  -2.8061241320573344E-01
   1.7759840861361537E-02
   0.0000000000000000E+00
   0.0000000000000000E+00
   0.0000000000000000E+00
   0.0000000000000000E+00
   0.0000000000000000E+00
   0.0000000000000000E+00
   0.0000000000000000E+00
   0.0000000000000000E+00
   0.0000000000000000E+00
   0.0000000000000000E+00
   0.0000000000000000E+00
   0.0000000000000000E+00
   0.0000000000000000E+00
   0.0000000000000000E+00
   0.0000000000000000E+00
   0.0000000000000000E+00
   0.0000000000000000E+00
   0.0000000000000000E+00
   0.0000000000000000E+00
   0.0000000000000000E+00
   0.0000000000000000E+00
   0.0000000000000000E+00
   0.0000000000000000E+00
   0.0000000000000000E+00
   0.0000000000000000E+00
   2.8284271247461906E-01
  -5.2999439284486249E-02
  -2.6298050326375244E-01
   1.5155470410844102E-01
   2.0618346388877201E-01
  -2.2882456112707372E-01
  -1.2042856974178685E-01
   2.7395668855086303E-01
   1.7759840861361537E-02
  -2.8061241320573344E-01
   8.7403204889764219E-02
   2.4785695834323451E-01
  -1.8029073025691314E-01
  -1.8029073025691314E-01
   2.4785695834323451E-01
   8.7403204889764219E-02
  -2.8061241320573344E-01
   1.7759840861361537E-02
   2.7395668855086303E-01
  -1.2042856974178685E-01
  -2.2882456112707372E-01
   2.0618346388877201E-01
   1.5155470410844102E-01
  -2.6298050326375244E-01
  -5.2999439284486249E-02
   0.0000000000000000E+00
   0.0000000000000000E+00
   0.0000000000000000E+00
   0.0000000000000000E+00
   0.0000000000000000E+00
   0.0000000000000000E+00
   0.0000000000000000E+00
   0.0000000000000000E+00
   0.0000000000000000E+00
   0.0000000000000000E+00
   0.0000000000000000E+00
   0.0000000000000000E+00
   0.0000000000000000E+00
   0.0000000000000000E+00
   0.0000000000000000E+00
   0.0000000000000000E+00
   0.0000000000000000E+00
   0.0000000000000000E+00
   0.0000000000000000E+00
   0.0000000000000000E+00
   0.0000000000000000E+00
   0.0000000000000000E+00
   0.0000000000000000E+00
   0.0000000000000000E+00
   0.0000000000000000E+00
   2.8284271247461906E-01
  -1.2042856974178685E-01
  -1.8029073025691314E-01
   2.7395668855086303E-01
  -5.2999439284486249E-02
  -2.2882456112707372E-01
   2.4785695834323451E-01
   1.7759840861361537E-02
  -2.6298050326375244E-01
   2.0618346388877201E-01
   8.7403204889764219E-02
  -2.8061241320573344E-01
   1.5155470410844102E-01
   1.5155470410844102E-01
  -2.8061241320573344E-01
   8.7403204889764219E-02
   2.0618346388877201E-01
  -2.6298050326375244E-01
   1.7759840861361537E-02
   2.4785695834323451E-01
  -2.2882456112707372E-01
  -5.2999439284486249E-02
   2.7395668855086303E-01
  -1.8029073025691314E-01
  -1.2042856974178685E-01
   0.0000000000000000E+00
   0.0000000000000000E+00
   0.0000000000000000E+00
   0.0000000000000000E+00
   0.0000000000000000E+00
   0.0000000000000000E+00
   0.0000000000000000E+00
   0.0000000000000000E+00
   0.0000000000000000E+00
   0.0000000000000000E+00
   0.0000000000000000E+00
   0.0000000000000000E+00
   0.0000000000000000E+00
   0.0000000000000000E+00
   0.0000000000000000E+00
   0.0000000000000000E+00
   0.0000000000000000E+00
   0.0000000000000000E+00
   0.0000000000000000E+00
   0.0000000000000000E+00
   0.0000000000000000E+00
   0.0000000000000000E+00
   0.0000000000000000E+00
   0.0000000000000000E+00
   0.0000000000000000E+00
   2.8284271247461906E-01
  -1.8029073025691314E-01
  -5.2999439284486249E-02
   2.4785695834323451E-01
  -2.6298050326375244E-01
   8.7403204889764219E-02
   1.5155470410844102E-01
  -2.8061241320573344E-01
   2.0618346388877201E-01
   1.7759840861361537E-02
  -2.2882456112707372E-01
   2.7395668855086303E-01
  -1.2042856974178685E-01
  -1.2042856974178685E-01
   2.7395668855086303E-01
  -2.2882456112707372E-01
   1.7759840861361537E-02
   2.0618346388877201E-01
  -2.8061241320573344E-01
   1.5155470410844102E-01
   8.7403204889764219E-02
  -2.6298050326375244E-01
   2.4785695834323451E-01
  -5.2999439284486249E-02
  -1.8029073025691314E-01
   0.0000000000000000E+00
   0.0000000000000000E+00
   0.0000000000000000E+00
   0.0000000000000000E+00
   0.0000000000000000E+00
   0.0000000000000000E+00
   0.0000000000000000E+00
   0.0000000000000000E+00
   0.0000000000000000E+00
   0.0000000000000000E+00
   0.0000000000000000E+00
   0.0000000000000000E+00
   0.0000000000000000E+00
   0.0000000000000000E+00
   0.0000000000000000E+00
   0.0000000000000000E+00
   0.0000000000000000E+00
   0.0000000000000000E+00
   0.0000000000000000E+00
   0.0000000000000000E+00
   0.0000000000000000E+00
   0.0000000000000000E+00
   0.0000000000000000E+00
   0.0000000000000000E+00
   0.0000000000000000E+00
   2.8284271247461906E-01
  -2.2882456112707372E-01
   8.7403204889764219E-02
   8.7403204889764219E-02
  -2.2882456112707372E-01
   2.8284271247461906E-01
  -2.2882456112707372E-01
   8.7403204889764219E-02
   8.7403204889764219E-02
  -2.2882456112707372E-01
   2.8284271247461906E-01
  -2.2882456112707372E-01
   8.7403204889764219E-02
   8.7403204889764219E-02
  -2.2882456112707372E-01
   2.8284271247461906E-01
  -2.2882456112707372E-01
   8.7403204889764219E-02
   8.7403204889764219E-02
  -2.2882456112707372E-01
   2.8284271247461906E-01
  -2.2882456112707372E-01
   8.7403204889764219E-02
   8.7403204889764219E-02
  -2.2882456112707372E-01
   0.0000000000000000E+00
   0.0000000000000000E+00
   0.0000000000000000E+00
   0.0000000000000000E+00
   0.0000000000000000E+00
   0.0000000000000000E+00
   0.0000000000000000E+00
   0.0000000000000000E+00
   0.0000000000000000E+00
   0.0000000000000000E+00
   0.0000000000000000E+00
   0.0000000000000000E+00
   0.0000000000000000E+00
   0.0000000000000000E+00
   0.0000000000000000E+00
   0.0000000000000000E+00
   0.0000000000000000E+00
   0.0000000000000000E+00
   0.0000000000000000E+00
   0.0000000000000000E+00
   0.0000000000000000E+00
   0.0000000000000000E+00
   0.0000000000000000E+00
   0.0000000000000000E+00
   0.0000000000000000E+00
   2.8284271247461906E-01
  -2.6298050326375244E-01
   2.0618346388877201E-01
  -1.2042856974178685E-01
   1.7759840861361537E-02
   8.7403204889764219E-02
  -1.8029073025691314E-01
   2.4785695834323451E-01
  -2.8061241320573344E-01
   2.7395668855086303E-01
  -2.2882456112707372E-01
   1.5155470410844102E-01
  -5.2999439284486249E-02
  -5.2999439284486249E-02
   1.5155470410844102E-01
  -2.2882456112707372E-01
   2.7395668855086303E-01
  -2.8061241320573344E-01
   2.4785695834323451E-01
  -1.8029073025691314E-01
   8.7403204889764219E-02
   1.7759840861361537E-02
  -1.2042856974178685E-01
   2.0618346388877201E-01
  -2.6298050326375244E-01
   0.0000000000000000E+00
   0.0000000000000000E+00
   0.0000000000000000E+00
   0.0000000000000000E+00
   0.0000000000000000E+00
   0.0000000000000000E+00
   0.0000000000000000E+00
   0.0000000000000000E+00
   0.0000000000000000E+00
   0.0000000000000000E+00
   0.0000000000000000E+00
   0.0000000000000000E+00
   0.0000000000000000E+00
   0.0000000000000000E+00
   0.0000000000000000E+00
   0.0000000000000000E+00
   0.0000000000000000E+00
   0.0000000000000000E+00
   0.0000000000000000E+00
   0.0000000000000000E+00
   0.0000000000000000E+00
   0.0000000000000000E+00
   0.0000000000000000E+00
   0.0000000000000000E+00
   0.0000000000000000E+00
   2.8284271247461906E-01
  -2.8061241320573344E-01
   2.7395668855086303E-01
  -2.6298050326375244E-01
   2.4785695834323451E-01
  -2.2882456112707372E-01
   2.0618346388877201E-01
  -1.8029073025691314E-01
   1.5155470410844102E-01
  -1.2042856974178685E-01
   8.7403204889764219E-02
  -5.2999439284486249E-02
   1.7759840861361537E-02
   1.7759840861361537E-02
  -5.2999439284486249E-02
   8.7403204889764219E-02
  -1.2042856974178685E-01
   1.5155470410844102E-01
  -1.8029073025691314E-01
   2.0618346388877201E-01
  -2.2882456112707372E-01
   2.4785695834323451E-01
  -2.6298050326375244E-01
   2.7395668855086303E-01
  -2.8061241320573344E-01
   0.0000000000000000E+00
   0.0000000000000000E+00
   0.0000000000000000E+00
   0.0000000000000000E+00
   0.0000000000000000E+00
   0.0000000000000000E+00
   0.0000000000000000E+00
   0.0000000000000000E+00
   0.0000000000000000E+00
   0.0000000000000000E+00
   0.0000000000000000E+00
   0.0000000000000000E+00
   0.0000000000000000E+00
   0.0000000000000000E+00
   0.0000000000000000E+00
   0.0000000000000000E+00
   0.0000000000000000E+00
   0.0000000000000000E+00
   0.0000000000000000E+00
   0.0000000000000000E+00
   0.0000000000000000E+00
   0.0000000000000000E+00
   0.0000000000000000E+00
   0.0000000000000000E+00
   0.0000000000000000E+00
   0.0000000000000000E+00
   3.5449591744542784E-02
  -7.0340122250714482E-02
   1.0412134700984012E-01
  -1.3626051592754279E-01
   1.6625077511098138E-01
  -1.9361916025752068E-01
   2.1793405558431891E-01
  -2.3881200066705804E-01
   2.5592373783990341E-01
  -2.6899940478558299E-01
   2.7783279042533854E-01
  -2.8228458699082232E-01
   2.8228458699082232E-01
  -2.7783279042533854E-01
   2.6899940478558299E-01
  -2.5592373783990341E-01
   2.3881200066705804E-01
  -2.1793405558431891E-01
   1.9361916025752068E-01
  -1.6625077511098138E-01
   1.3626051592754279E-01
  -1.0412134700984012E-01
   7.0340122250714482E-02
  -3.5449591744542784E-02
   0.0000000000000000E+00
   0.0000000000000000E+00
   0.0000000000000000E+00
   0.0000000000000000E+00
   0.0000000000000000E+00
   0.0000000000000000E+00
   0.0000000000000000E+00
   0.0000000000000000E+00
   0.0000000000000000E+00
   0.0000000000000000E+00
   0.0000000000000000E+00
   0.0000000000000000E+00
   0.0000000000000000E+00
   0.0000000000000000E+00
   0.0000000000000000E+00
   0.0000000000000000E+00
   0.0000000000000000E+00
   0.0000000000000000E+00
   0.0000000000000000E+00
   0.0000000000000000E+00
   0.0000000000000000E+00
   0.0000000000000000E+00
   0.0000000000000000E+00
   0.0000000000000000E+00
   0.0000000000000000E+00
   0.0000000000000000E+00
   1.0412134700984012E-01
  -1.9361916025752068E-01
   2.5592373783990341E-01
  -2.8228458699082232E-01
   2.6899940478558299E-01
  -2.1793405558431891E-01
   1.3626051592754279E-01
  -3.5449591744542784E-02
  -7.0340122250714482E-02
   1.6625077511098138E-01
  -2.3881200066705804E-01
   2.7783279042533854E-01
  -2.7783279042533854E-01
   2.3881200066705804E-01
  -1.6625077511098138E-01
   7.0340122250714482E-02
   3.5449591744542784E-02
  -1.3626051592754279E-01
   2.1793405558431891E-01
  -2.6899940478558299E-01
   2.8228458699082232E-01
  -2.5592373783990341E-01
   1.9361916025752068E-01
  -1.0412134700984012E-01
   0.0000000000000000E+00
   0.0000000000000000E+00
   0.0000000000000000E+00
   0.0000000000000000E+00
   0.0000000000000000E+00
   0.0000000000000000E+00
   0.0000000000000000E+00
   0.0000000000000000E+00
   0.0000000000000000E+00
   0.0000000000000000E+00
   0.0000000000000000E+00
   0.0000000000000000E+00
   0.0000000000000000E+00
   0.0000000000000000E+00
   0.0000000000000000E+00
   0.0000000000000000E+00
   0.0000000000000000E+00
   0.0000000000000000E+00
   0.0000000000000000E+00
   0.0000000000000000E+00
   0.0000000000000000E+00
   0.0000000000000000E+00
   0.0000000000000000E+00
   0.0000000000000000E+00
   0.0000000000000000E+00
   0.0000000000000000E+00
   1.6625077511098138E-01
  -2.6899940478558299E-01
   2.6899940478558299E-01
  -1.6625077511098138E-01
   0.0000000000000000E+00
   1.6625077511098138E-01
  -2.6899940478558299E-01
   2.6899940478558299E-01
  -1.6625077511098138E-01
   0.0000000000000000E+00
   1.6625077511098138E-01
  -2.6899940478558299E-01
   2.6899940478558299E-01
  -1.6625077511098138E-01
   0.0000000000000000E+00
   1.6625077511098138E-01
  -2.6899940478558299E-01
   2.6899940478558299E-01
  -1.6625077511098138E-01
   0.0000000000000000E+00
   1.6625077511098138E-01
  -2.6899940478558299E-01
   2.6899940478558299E-01
  -1.6625077511098138E-01
   0.0000000000000000E+00
   0.0000000000000000E+00
   0.0000000000000000E+00
   0.0000000000000000E+00
   0.0000000000000000E+00
   0.0000000000000000E+00
   0.0000000000000000E+00
   0.0000000000000000E+00
   0.0000000000000000E+00
   0.0000000000000000E+00
   0.0000000000000000E+00
   0.0000000000000000E+00
   0.0000000000000000E+00
   0.0000000000000000E+00
   0.0000000000000000E+00
   0.0000000000000000E+00
   0.0000000000000000E+00
   0.0000000000000000E+00
   0.0000000000000000E+00
   0.0000000000000000E+00
   0.0000000000000000E+00
   0.0000000000000000E+00
   0.0000000000000000E+00
   0.0000000000000000E+00
   0.0000000000000000E+00
   0.0000000000000000E+00
   2.1793405558431891E-01
  -2.7783279042533854E-01
   1.3626051592754279E-01
   1.0412134700984012E-01
  -2.6899940478558299E-01
   2.3881200066705804E-01
  -3.5449591744542784E-02
  -1.9361916025752068E-01
   2.8228458699082232E-01
  -1.6625077511098138E-01
  -7.0340122250714482E-02
   2.5592373783990341E-01
  -2.5592373783990341E-01
   7.0340122250714482E-02
   1.6625077511098138E-01
  -2.8228458699082232E-01
   1.9361916025752068E-01
   3.5449591744542784E-02
  -2.3881200066705804E-01
   2.6899940478558299E-01
  -1.0412134700984012E-01
  -1.3626051592754279E-01
   2.7783279042533854E-01
  -2.1793405558431891E-01
   0.0000000000000000E+00
   0.0000000000000000E+00
   0.0000000000000000E+00
   0.0000000000000000E+00
   0.0000000000000000E+00
   0.0000000000000000E+00
   0.0000000000000000E+00
   0.0000000000000000E+00
   0.0000000000000000E+00
   0.0000000000000000E+00
   0.0000000000000000E+00
   0.0000000000000000E+00
   0.0000000000000000E+00
   0.0000000000000000E+00
   0.0000000000000000E+00
   0.0000000000000000E+00
   0.0000000000000000E+00
   0.0000000000000000E+00
   0.0000000000000000E+00
   0.0000000000000000E+00
   0.0000000000000000E+00
   0.0000000000000000E+00
   0.0000000000000000E+00
   0.0000000000000000E+00
   0.0000000000000000E+00
   0.0000000000000000E+00
   2.5592373783990341E-01
  -2.1793405558431891E-01
  -7.0340122250714482E-02
   2.7783279042533854E-01
  -1.6625077511098138E-01
  -1.3626051592754279E-01
   2.8228458699082232E-01
  -1.0412134700984012E-01
  -1.9361916025752068E-01
   2.6899940478558299E-01
  -3.5449591744542784E-02
  -2.3881200066705804E-01
   2.3881200066705804E-01
   3.5449591744542784E-02
  -2.6899940478558299E-01
   1.9361916025752068E-01
   1.0412134700984012E-01
  -2.8228458699082232E-01
   1.3626051592754279E-01
   1.6625077511098138E-01
  -2.7783279042533854E-01
   7.0340122250714482E-02
   2.1793405558431891E-01
  -2.5592373783990341E-01
   0.0000000000000000E+00
   0.0000000000000000E+00
   0.0000000000000000E+00
   0.0000000000000000E+00
   0.0000000000000000E+00
   0.0000000000000000E+00
   0.0000000000000000E+00
   0.0000000000000000E+00
   0.0000000000000000E+00
   0.0000000000000000E+00
   0.0000000000000000E+00
   0.0000000000000000E+00
   0.0000000000000000E+00
   0.0000000000000000E+00
   0.0000000000000000E+00
   0.0000000000000000E+00
   0.0000000000000000E+00
   0.0000000000000000E+00
   0.0000000000000000E+00
   0.0000000000000000E+00
   0.0000000000000000E+00
   0.0000000000000000E+00
   0.0000000000000000E+00
   0.0000000000000000E+00
   0.0000000000000000E+00
   0.0000000000000000E+00
   2.7783279042533854E-01
  -1.0412134700984012E-01
  -2.3881200066705804E-01
   1.9361916025752068E-01
   1.6625077511098138E-01
  -2.5592373783990341E-01
  -7.0340122250714482E-02
   2.8228458699082232E-01
  -3.5449591744542784E-02
  -2.6899940478558299E-01
   1.3626051592754279E-01
   2.1793405558431891E-01
  -2.1793405558431891E-01
  -1.3626051592754279E-01
   2.6899940478558299E-01
   3.5449591744542784E-02
  -2.8228458699082232E-01
   7.0340122250714482E-02
   2.5592373783990341E-01
  -1.6625077511098138E-01
  -1.9361916025752068E-01
   2.3881200066705804E-01
   1.0412134700984012E-01
  -2.7783279042533854E-01
   0.0000000000000000E+00
   0.0000000000000000E+00
   0.0000000000000000E+00
   0.0000000000000000E+00
   0.0000000000000000E+00
   0.0000000000000000E+00
   0.0000000000000000E+00
   0.0000000000000000E+00
   0.0000000000000000E+00
   0.0000000000000000E+00
   0.0000000000000000E+00
   0.0000000000000000E+00
   0.0000000000000000E+00
   0.0000000000000000E+00
   0.0000000000000000E+00
   0.0000000000000000E+00
   0.0000000000000000E+00
   0.0000000000000000E+00
   0.0000000000000000E+00
   0.0000000000000000E+00
   0.0000000000000000E+00
   0.0000000000000000E+00
   0.0000000000000000E+00
   0.0000000000000000E+00
   0.0000000000000000E+00
   0.0000000000000000E+00
   2.8228458699082232E-01
   3.5449591744542784E-02
  -2.7783279042533854E-01
  -7.0340122250714482E-02
   2.6899940478558299E-01
   1.0412134700984012E-01
  -2.5592373783990341E-01
  -1.3626051592754279E-01
   2.3881200066705804E-01
   1.6625077511098138E-01
  -2.1793405558431891E-01
  -1.9361916025752068E-01
   1.9361916025752068E-01
   2.1793405558431891E-01
  -1.6625077511098138E-01
  -2.3881200066705804E-01
   1.3626051592754279E-01
   2.5592373783990341E-01
  -1.0412134700984012E-01
  -2.6899940478558299E-01
   7.0340122250714482E-02
   2.7783279042533854E-01
  -3.5449591744542784E-02
  -2.8228458699082232E-01
   0.0000000000000000E+00
   0.0000000000000000E+00
   0.0000000000000000E+00
   0.0000000000000000E+00
   0.0000000000000000E+00
   0.0000000000000000E+00
   0.0000000000000000E+00
   0.0000000000000000E+00
   0.0000000000000000E+00
   0.0000000000000000E+00
   0.0000000000000000E+00
   0.0000000000000000E+00
   0.0000000000000000E+00
   0.0000000000000000E+00
   0.0000000000000000E+00
   0.0000000000000000E+00
   0.0000000000000000E+00
   0.0000000000000000E+00
   0.0000000000000000E+00
   0.0000000000000000E+00
   0.0000000000000000E+00
   0.0000000000000000E+00
   0.0000000000000000E+00
   0.0000000000000000E+00
   0.0000000000000000E+00
   0.0000000000000000E+00
   2.6899940478558299E-01
   1.6625077511098138E-01
  -1.6625077511098138E-01
  -2.6899940478558299E-01
   0.0000000000000000E+00
   2.6899940478558299E-01
   1.6625077511098138E-01
  -1.6625077511098138E-01
  -2.6899940478558299E-01
   0.0000000000000000E+00
   2.6899940478558299E-01
   1.6625077511098138E-01
  -1.6625077511098138E-01
  -2.6899940478558299E-01
   0.0000000000000000E+00
   2.6899940478558299E-01
   1.6625077511098138E-01
  -1.6625077511098138E-01
  -2.6899940478558299E-01
   0.0000000000000000E+00
   2.6899940478558299E-01
   1.6625077511098138E-01
  -1.6625077511098138E-01
  -2.6899940478558299E-01
   0.0000000000000000E+00
   0.0000000000000000E+00
   0.0000000000000000E+00
   0.0000000000000000E+00
   0.0000000000000000E+00
   0.0000000000000000E+00
   0.0000000000000000E+00
   0.0000000000000000E+00
   0.0000000000000000E+00
   0.0000000000000000E+00
   0.0000000000000000E+00
   0.0000000000000000E+00
   0.0000000000000000E+00
   0.0000000000000000E+00
   0.0000000000000000E+00
   0.0000000000000000E+00
   0.0000000000000000E+00
   0.0000000000000000E+00
   0.0000000000000000E+00
   0.0000000000000000E+00
   0.0000000000000000E+00
   0.0000000000000000E+00
   0.0000000000000000E+00
   0.0000000000000000E+00
   0.0000000000000000E+00
   0.0000000000000000E+00
   2.3881200066705804E-01
   2.5592373783990341E-01
   3.5449591744542784E-02
  -2.1793405558431891E-01
  -2.6899940478558299E-01
  -7.0340122250714482E-02
   1.9361916025752068E-01
   2.7783279042533854E-01
   1.0412134700984012E-01
  -1.6625077511098138E-01
  -2.8228458699082232E-01
  -1.3626051592754279E-01
   1.3626051592754279E-01
   2.8228458699082232E-01
   1.6625077511098138E-01
  -1.0412134700984012E-01
  -2.7783279042533854E-01
  -1.9361916025752068E-01
   7.0340122250714482E-02
   2.6899940478558299E-01
   2.1793405558431891E-01
  -3.5449591744542784E-02
  -2.5592373783990341E-01
  -2.3881200066705804E-01
   0.0000000000000000E+00
   0.0000000000000000E+00
   0.0000000000000000E+00
   0.0000000000000000E+00
   0.0000000000000000E+00
   0.0000000000000000E+00
   0.0000000000000000E+00
   0.0000000000000000E+00
   0.0000000000000000E+00
   0.0000000000000000E+00
   0.0000000000000000E+00
   0.0000000000000000E+00
   0.0000000000000000E+00
   0.0000000000000000E+00
   0.0000000000000000E+00
   0.0000000000000000E+00
   0.0000000000000000E+00
   0.0000000000000000E+00
   0.0000000000000000E+00
   0.0000000000000000E+00
   0.0000000000000000E+00
   0.0000000000000000E+00
   0.0000000000000000E+00
   0.0000000000000000E+00
   0.0000000000000000E+00
   0.0000000000000000E+00
   1.9361916025752068E-01
   2.8228458699082232E-01
   2.1793405558431891E-01
   3.5449591744542784E-02
  -1.6625077511098138E-01
  -2.7783279042533854E-01
  -2.3881200066705804E-01
  -7.0340122250714482E-02
   1.3626051592754279E-01
   2.6899940478558299E-01
   2.5592373783990341E-01
   1.0412134700984012E-01
  -1.0412134700984012E-01
  -2.5592373783990341E-01
  -2.6899940478558299E-01
  -1.3626051592754279E-01
   7.0340122250714482E-02
   2.3881200066705804E-01
   2.7783279042533854E-01
   1.6625077511098138E-01
  -3.5449591744542784E-02
  -2.1793405558431891E-01
  -2.8228458699082232E-01
  -1.9361916025752068E-01
   0.0000000000000000E+00
   0.0000000000000000E+00
   0.0000000000000000E+00
   0.0000000000000000E+00
   0.0000000000000000E+00
   0.0000000000000000E+00
   0.0000000000000000E+00
   0.0000000000000000E+00
   0.0000000000000000E+00
   0.0000000000000000E+00
   0.0000000000000000E+00
   0.0000000000000000E+00
   0.0000000000000000E+00
   0.0000000000000000E+00
   0.0000000000000000E+00
   0.0000000000000000E+00
   0.0000000000000000E+00
   0.0000000000000000E+00
   0.0000000000000000E+00
   0.0000000000000000E+00
   0.0000000000000000E+00
   0.0000000000000000E+00
   0.0000000000000000E+00
   0.0000000000000000E+00
   0.0000000000000000E+00
   0.0000000000000000E+00
   1.3626051592754279E-01
   2.3881200066705804E-01
   2.8228458699082232E-01
   2.5592373783990341E-01
   1.6625077511098138E-01
   3.5449591744542784E-02
  -1.0412134700984012E-01
  -2.1793405558431891E-01
  -2.7783279042533854E-01
  -2.6899940478558299E-01
  -1.9361916025752068E-01
  -7.0340122250714482E-02
   7.0340122250714482E-02
   1.9361916025752068E-01
   2.6899940478558299E-01
   2.7783279042533854E-01
   2.1793405558431891E-01
   1.0412134700984012E-01
  -3.5449591744542784E-02
  -1.6625077511098138E-01
  -2.5592373783990341E-01
  -2.8228458699082232E-01
  -2.3881200066705804E-01
  -1.3626051592754279E-01
   0.0000000000000000E+00
   0.0000000000000000E+00
   0.0000000000000000E+00
   0.0000000000000000E+00
   0.0000000000000000E+00
   0.0000000000000000E+00
   0.0000000000000000E+00
   0.0000000000000000E+00
   0.0000000000000000E+00
   0.0000000000000000E+00
   0.0000000000000000E+00
   0.0000000000000000E+00
   0.0000000000000000E+00
   0.0000000000000000E+00
   0.0000000000000000E+00
   0.0000000000000000E+00
   0.0000000000000000E+00
   0.0000000000000000E+00
   0.0000000000000000E+00
   0.0000000000000000E+00
   0.0000000000000000E+00
   0.0000000000000000E+00
   0.0000000000000000E+00
   0.0000000000000000E+00
   0.0000000000000000E+00
   0.0000000000000000E+00
   7.0340122250714482E-02
   1.3626051592754279E-01
   1.9361916025752068E-01
   2.3881200066705804E-01
   2.6899940478558299E-01
   2.8228458699082232E-01
   2.7783279042533854E-01
   2.5592373783990341E-01
   2.1793405558431891E-01
   1.6625077511098138E-01
   1.0412134700984012E-01
   3.5449591744542784E-02
  -3.5449591744542784E-02
  -1.0412134700984012E-01
  -1.6625077511098138E-01
  -2.1793405558431891E-01
  -2.5592373783990341E-01
  -2.7783279042533854E-01
  -2.8228458699082232E-01
  -2.6899940478558299E-01
  -2.3881200066705804E-01
  -1.9361916025752068E-01
  -1.3626051592754279E-01
  -7.0340122250714482E-02
   0.0000000000000000E+00
   0.0000000000000000E+00
   0.0000000000000000E+00
   0.0000000000000000E+00
   0.0000000000000000E+00
   0.0000000000000000E+00
   0.0000000000000000E+00
   0.0000000000000000E+00
   0.0000000000000000E+00
   0.0000000000000000E+00
   0.0000000000000000E+00
   0.0000000000000000E+00
   0.0000000000000000E+00
   0.0000000000000000E+00
   0.0000000000000000E+00
   0.0000000000000000E+00
   0.0000000000000000E+00
   0.0000000000000000E+00
   0.0000000000000000E+00
   0.0000000000000000E+00
   0.0000000000000000E+00
   0.0000000000000000E+00
   0.0000000000000000E+00
   0.0000000000000000E+00
   0.0000000000000000E+00
   0.0000000000000000E+00
   0.0000000000000000E+00
   0.0000000000000000E+00
   0.0000000000000000E+00
   0.0000000000000000E+00
   0.0000000000000000E+00
   0.0000000000000000E+00
   0.0000000000000000E+00
   0.0000000000000000E+00
   0.0000000000000000E+00
   0.0000000000000000E+00
   0.0000000000000000E+00
   0.0000000000000000E+00
   0.0000000000000000E+00
   0.0000000000000000E+00
   0.0000000000000000E+00
   0.0000000000000000E+00
   0.0000000000000000E+00
   0.0000000000000000E+00
   0.0000000000000000E+00
   0.0000000000000000E+00
   0.0000000000000000E+00
   0.0000000000000000E+00
   0.0000000000000000E+00
   0.0000000000000000E+00
   2.0000000000000001E-01
   2.0000000000000001E-01
   2.0000000000000001E-01
   2.0000000000000001E-01
   2.0000000000000001E-01
   2.0000000000000001E-01
   2.0000000000000001E-01
   2.0000000000000001E-01
   2.0000000000000001E-01
   2.0000000000000001E-01
   2.0000000000000001E-01
   2.0000000000000001E-01
   2.0000000000000001E-01
   2.0000000000000001E-01
   2.0000000000000001E-01
   2.0000000000000001E-01
   2.0000000000000001E-01
   2.0000000000000001E-01
   2.0000000000000001E-01
   2.0000000000000001E-01
   2.0000000000000001E-01
   2.0000000000000001E-01
   2.0000000000000001E-01
   2.0000000000000001E-01
   2.0000000000000001E-01
   0.0000000000000000E+00
   0.0000000000000000E+00
   0.0000000000000000E+00
   0.0000000000000000E+00
   0.0000000000000000E+00
   0.0000000000000000E+00
   0.0000000000000000E+00
   0.0000000000000000E+00
   0.0000000000000000E+00
   0.0000000000000000E+00
   0.0000000000000000E+00
   0.0000000000000000E+00
   0.0000000000000000E+00
   0.0000000000000000E+00
   0.0000000000000000E+00
   0.0000000000000000E+00
   0.0000000000000000E+00
   0.0000000000000000E+00
   0.0000000000000000E+00
   0.0000000000000000E+00
   0.0000000000000000E+00
   0.0000000000000000E+00
   0.0000000000000000E+00
   0.0000000000000000E+00
   0.0000000000000000E+00
   2.8284271247461906E-01
   2.7395668855086303E-01
   2.4785695834323451E-01
   2.0618346388877201E-01
   1.5155470410844102E-01
   8.7403204889764219E-02
   1.7759840861361537E-02
  -5.2999439284486249E-02
  -1.2042856974178685E-01
  -1.8029073025691314E-01
  -2.2882456112707372E-01
  -2.6298050326375244E-01
  -2.8061241320573344E-01
  -2.8061241320573344E-01
  -2.6298050326375244E-01
  -2.2882456112707372E-01
  -1.8029073025691314E-01
  -1.2042856974178685E-01
  -5.2999439284486249E-02
   1.7759840861361537E-02
   8.7403204889764219E-02
   1.5155470410844102E-01
   2.0618346388877201E-01
   2.4785695834323451E-01
   2.7395668855086303E-01
   0.0000000000000000E+00
   0.0000000000000000E+00
   0.0000000000000000E+00
   0.0000000000000000E+00
   0.0000000000000000E+00
   0.0000000000000000E+00
   0.0000000000000000E+00
   0.0000000000000000E+00
   0.0000000000000000E+00
   0.0000000000000000E+00
   0.0000000000000000E+00
   0.0000000000000000E+00
   0.0000000000000000E+00
   0.0000000000000000E+00
   0.0000000000000000E+00
   0.0000000000000000E+00
   0.0000000000000000E+00
   0.0000000000000000E+00
   0.0000000000000000E+00
   0.0000000000000000E+00
   0.0000000000000000E+00
   0.0000000000000000E+00
   0.0000000000000000E+00
   0.0000000000000000E+00
   0.0000000000000000E+00
   2.8284271247461906E-01
   2.4785695834323451E-01
   1.5155470410844102E-01
   1.7759840861361537E-02
  -1.2042856974178685E-01
  -2.2882456112707372E-01
  -2.8061241320573344E-01
  -2.6298050326375244E-01
  -1.8029073025691314E-01
  -5.2999439284486249E-02
   8.7403204889764219E-02
   2.0618346388877201E-01
   2.7395668855086303E-01
   2.7395668855086303E-01
   2.0618346388877201E-01
   8.7403204889764219E-02
  -5.2999439284486249E-02
  -1.8029073025691314E-01
  -2.6298050326375244E-01
  -2.8061241320573344E-01
  -2.2882456112707372E-01
  -1.2042856974178685E-01
   1.7759840861361537E-02
   1.5155470410844102E-01
   2.4785695834323451E-01
   0.0000000000000000E+00
   0.0000000000000000E+00
   0.0000000000000000E+00
   0.0000000000000000E+00
   0.0000000000000000E+00
   0.0000000000000000E+00
   0.0000000000000000E+00
   0.0000000000000000E+00
   0.0000000000000000E+00
   0.0000000000000000E+00
   0.0000000000000000E+00
   0.0000000000000000E+00
   0.0000000000000000E+00
   0.0000000000000000E+00
   0.0000000000000000E+00
   0.0000000000000000E+00
   0.0000000000000000E+00
   0.0000000000000000E+00
   0.0000000000000000E+00
   0.0000000000000000E+00
   0.0000000000000000E+00
   0.0000000000000000E+00
   0.0000000000000000E+00
   0.0000000000000000E+00
   0.0000000000000000E+00
   2.8284271247461906E-01
   2.0618346388877201E-01
   1.7759840861361537E-02
  -1.8029073025691314E-01
  -2.8061241320573344E-01
  -2.2882456112707372E-01
  -5.2999439284486249E-02
   1.5155470410844102E-01
   2.7395668855086303E-01
   2.4785695834323451E-01
   8.7403204889764219E-02
  -1.2042856974178685E-01
  -2.6298050326375244E-01
  -2.6298050326375244E-01
  -1.2042856974178685E-01
   8.7403204889764219E-02
   2.4785695834323451E-01
   2.7395668855086303E-01
   1.5155470410844102E-01
  -5.2999439284486249E-02
  -2.2882456112707372E-01
  -2.8061241320573344E-01
  -1.8029073025691314E-01
   1.7759840861361537E-02
   2.0618346388877201E-01
   0.0000000000000000E+00
   0.0000000000000000E+00
   0.0000000000000000E+00
   0.0000000000000000E+00
   0.0000000000000000E+00
   0.0000000000000000E+00
   0.0000000000000000E+00
   0.0000000000000000E+00
   0.0000000000000000E+00
   0.0000000000000000E+00
   0.0000000000000000E+00
   0.0000000000000000E+00
   0.0000000000000000E+00
   0.0000000000000000E+00
   0.0000000000000000E+00
   0.0000000000000000E+00
   0.0000000000000000E+00
   0.0000000000000000E+00
   0.0000000000000000E+00
   0.0000000000000000E+00
   0.0000000000000000E+00
   0.0000000000000000E+00
   0.0000000000000000E+00
   0.0000000000000000E+00
   0.0000000000000000E+00
   2.8284271247461906E-01
   1.5155470410844102E-01
  -1.2042856974178685E-01
  -2.8061241320573344E-01
  -1.8029073025691314E-01
   8.7403204889764219E-02
   2.7395668855086303E-01
   2.0618346388877201E-01
  -5.2999439284486249E-02
  -2.6298050326375244E-01
  -2.2882456112707372E-01
   1.7759840861361537E-02
   2.4785695834323451E-01
   2.4785695834323451E-01
   1.7759840861361537E-02
  -2.2882456112707372E-01
  -2.6298050326375244E-01
  -5.2999439284486249E-02
   2.0618346388877201E-01
   2.7395668855086303E-01
   8.7403204889764219E-02
  -1.8029073025691314E-01
  -2.8061241320573344E-01
  -1.2042856974178685E-01
   1.5155470410844102E-01
   0.0000000000000000E+00
   0.0000000000000000E+00
   0.0000000000000000E+00
   0.0000000000000000E+00
   0.0000000000000000E+00
   0.0000000000000000E+00
   0.0000000000000000E+00
   0.0000000000000000E+00
   0.0000000000000000E+00
   0.0000000000000000E+00
   0.0000000000000000E+00
   0.0000000000000000E+00
   0.0000000000000000E+00
   0.0000000000000000E+00
   0.0000000000000000E+00
   0.0000000000000000E+00
   0.0000000000000000E+00
   0.0000000000000000E+00
   0.0000000000000000E+00
   0.0000000000000000E+00
   0.0000000000000000E+00
   0.0000000000000000E+00
   0.0000000000000000E+00
   0.0000000000000000E+00
   0.0000000000000000E+00
   2.8284271247461906E-01
   8.7403204889764219E-02
  -2.2882456112707372E-01
  -2.2882456112707372E-01
   8.7403204889764219E-02
   2.8284271247461906E-01
   8.7403204889764219E-02
  -2.2882456112707372E-01
  -2.2882456112707372E-01
   8.7403204889764219E-02
   2.8284271247461906E-01
   8.7403204889764219E-02
  -2.2882456112707372E-01
  -2.2882456112707372E-01
   8.7403204889764219E-02
   2.8284271247461906E-01
   8.7403204889764219E-02
  -2.2882456112707372E-01
  -2.2882456112707372E-01
   8.7403204889764219E-02
   2.8284271247461906E-01
   8.7403204889764219E-02
  -2.2882456112707372E-01
  -2.2882456112707372E-01
   8.7403204889764219E-02
   0.0000000000000000E+00
   0.0000000000000000E+00
   0.0000000000000000E+00
   0.0000000000000000E+00
   0.0000000000000000E+00
   0.0000000000000000E+00
   0.0000000000000000E+00
   0.0000000000000000E+00
   0.0000000000000000E+00
   0.0000000000000000E+00
   0.0000000000000000E+00
   0.0000000000000000E+00
   0.0000000000000000E+00
   0.0000000000000000E+00
   0.0000000000000000E+00
   0.0000000000000000E+00
   0.0000000000000000E+00
   0.0000000000000000E+00
   0.0000000000000000E+00
   0.0000000000000000E+00
   0.0000000000000000E+00
   0.0000000000000000E+00
   0.0000000000000000E+00
   0.0000000000000000E+00
   0.0000000000000000E+00
   2.8284271247461906E-01
   1.7759840861361537E-02
  -2.8061241320573344E-01
  -5.2999439284486249E-02
   2.7395668855086303E-01
   8.7403204889764219E-02
  -2.6298050326375244E-01
  -1.2042856974178685E-01
   2.4785695834323451E-01
   1.5155470410844102E-01
  -2.2882456112707372E-01
  -1.8029073025691314E-01
   2.0618346388877201E-01
   2.0618346388877201E-01
  -1.8029073025691314E-01
  -2.2882456112707372E-01
   1.5155470410844102E-01
   2.4785695834323451E-01
  -1.2042856974178685E-01
  -2.6298050326375244E-01
   8.7403204889764219E-02
   2.7395668855086303E-01
  -5.2999439284486249E-02
  -2.8061241320573344E-01
   1.7759840861361537E-02
   0.0000000000000000E+00
   0.0000000000000000E+00
   0.0000000000000000E+00
   0.0000000000000000E+00
   0.0000000000000000E+00
   0.0000000000000000E+00
   0.0000000000000000E+00
   0.0000000000000000E+00
   0.0000000000000000E+00
   0.0000000000000000E+00
   0.0000000000000000E+00
   0.0000000000000000E+00
   0.0000000000000000E+00
   0.0000000000000000E+00
   0.0000000000000000E+00
   0.0000000000000000E+00
   0.0000000000000000E+00
   0.0000000000000000E+00
   0.0000000000000000E+00
   0.0000000000000000E+00
   0.0000000000000000E+00
   0.0000000000000000E+00
   0.0000000000000000E+00
   0.0000000000000000E+00
   0.0000000000000000E+00
   2.8284271247461906E-01
  -5.2999439284486249E-02
  -2.6298050326375244E-01
   1.5155470410844102E-01
   2.0618346388877201E-01
  -2.2882456112707372E-01
  -1.2042856974178685E-01
   2.7395668855086303E-01
   1.7759840861361537E-02
  -2.8061241320573344E-01
   8.7403204889764219E-02
   2.4785695834323451E-01
  -1.8029073025691314E-01
  -1.8029073025691314E-01
   2.4785695834323451E-01
   8.7403204889764219E-02
  -2.8061241320573344E-01
   1.7759840861361537E-02
   2.7395668855086303E-01
  -1.2042856974178685E-01
  -2.2882456112707372E-01
   2.0618346388877201E-01
   1.5155470410844102E-01
  -2.6298050326375244E-01
  -5.2999439284486249E-02
   0.0000000000000000E+00
   0.0000000000000000E+00
   0.0000000000000000E+00
   0.0000000000000000E+00
   0.0000000000000000E+00
   0.0000000000000000E+00
   0.0000000000000000E+00
   0.0000000000000000E+00
   0.0000000000000000E+00
   0.0000000000000000E+00
   0.0000000000000000E+00
   0.0000000000000000E+00
   0.0000000000000000E+00
   0.0000000000000000E+00
   0.0000000000000000E+00
   0.0000000000000000E+00
   0.0000000000000000E+00
   0.0000000000000000E+00
   0.0000000000000000E+00
   0.0000000000000000E+00
   0.0000000000000000E+00
   0.0000000000000000E+00
   0.0000000000000000E+00
   0.0000000000000000E+00
   0.0000000000000000E+00
   2.8284271247461906E-01
  -1.2042856974178685E-01
  -1.8029073025691314E-01
   2.7395668855086303E-01
  -5.2999439284486249E-02
  -2.2882456112707372E-01
   2.4785695834323451E-01
   1.7759840861361537E-02
  -2.6298050326375244E-01
   2.0618346388877201E-01
   8.7403204889764219E-02
  -2.8061241320573344E-01
   1.5155470410844102E-01
   1.5155470410844102E-01
  -2.8061241320573344E-01
   8.7403204889764219E-02
   2.0618346388877201E-01
  -2.6298050326375244E-01
   1.7759840861361537E-02
   2.4785695834323451E-01
  -2.2882456112707372E-01
  -5.2999439284486249E-02
   2.7395668855086303E-01
  -1.8029073025691314E-01
  -1.2042856974178685E-01
   0.0000000000000000E+00
   0.0000000000000000E+00
   0.0000000000000000E+00
   0.0000000000000000E+00
   0.0000000000000000E+00
   0.0000000000000000E+00
   0.0000000000000000E+00
   0.0000000000000000E+00
   0.0000000000000000E+00
   0.0000000000000000E+00
   0.0000000000000000E+00
   0.0000000000000000E+00
   0.0000000000000000E+00
   0.0000000000000000E+00
   0.0000000000000000E+00
   0.0000000000000000E+00
   0.0000000000000000E+00
   0.0000000000000000E+00
   0.0000000000000000E+00
   0.0000000000000000E+00
   0.0000000000000000E+00
   0.0000000000000000E+00
   0.0000000000000000E+00
   0.0000000000000000E+00
   0.0000000000000000E+00
   2.8284271247461906E-01
  -1.8029073025691314E-01
  -5.2999439284486249E-02
   2.4785695834323451E-01
  -2.6298050326375244E-01
   8.7403204889764219E-02
   1.5155470410844102E-01
  -2.8061241320573344E-01
   2.0618346388877201E-01
   1.7759840861361537E-02
  -2.2882456112707372E-01
   2.7395668855086303E-01
  -1.2042856974178685E-01
  -1.2042856974178685E-01
   2.7395668855086303E-01
  -2.2882456112707372E-01
   1.7759840861361537E-02
   2.0618346388877201E-01
  -2.8061241320573344E-01
   1.5155470410844102E-01
   8.7403204889764219E-02
  -2.6298050326375244E-01
   2.4785695834323451E-01
  -5.2999439284486249E-02
  -1.8029073025691314E-01
   0.0000000000000000E+00
   0.0000000000000000E+00
   0.0000000000000000E+00
   0.0000000000000000E+00
   0.0000000000000000E+00
   0.0000000000000000E+00
   0.0000000000000000E+00
   0.0000000000000000E+00
   0.0000000000000000E+00
   0.0000000000000000E+00
   0.0000000000000000E+00
   0.0000000000000000E+00
   0.0000000000000000E+00
   0.0000000000000000E+00
   0.0000000000000000E+00
   0.0000000000000000E+00
   0.0000000000000000E+00
   0.0000000000000000E+00
   0.0000000000000000E+00
   0.0000000000000000E+00
   0.0000000000000000E+00
   0.0000000000000000E+00
   0.0000000000000000E+00
   0.0000000000000000E+00
   0.0000000000000000E+00
   2.8284271247461906E-01
  -2.2882456112707372E-01
   8.7403204889764219E-02
   8.7403204889764219E-02
  -2.2882456112707372E-01
   2.8284271247461906E-01
  -2.2882456112707372E-01
   8.7403204889764219E-02
   8.7403204889764219E-02
  -2.2882456112707372E-01
   2.8284271247461906E-01
  -2.2882456112707372E-01
   8.7403204889764219E-02
   8.7403204889764219E-02
  -2.2882456112707372E-01
   2.8284271247461906E-01
  -2.2882456112707372E-01
   8.7403204889764219E-02
   8.7403204889764219E-02
  -2.2882456112707372E-01
   2.8284271247461906E-01
  -2.2882456112707372E-01
   8.7403204889764219E-02
   8.7403204889764219E-02
  -2.2882456112707372E-01
   0.0000000000000000E+00
   0.0000000000000000E+00
   0.0000000000000000E+00
   0.0000000000000000E+00
   0.0000000000000000E+00
   0.0000000000000000E+00
   0.0000000000000000E+00
   0.0000000000000000E+00
   0.0000000000000000E+00
   0.0000000000000000E+00
   0.0000000000000000E+00
   0.0000000000000000E+00
   0.0000000000000000E+00
   0.0000000000000000E+00
   0.0000000000000000E+00
   0.0000000000000000E+00
   0.0000000000000000E+00
   0.0000000000000000E+00
   0.0000000000000000E+00
   0.0000000000000000E+00
   0.0000000000000000E+00
   0.0000000000000000E+00
   0.0000000000000000E+00
   0.0000000000000000E+00
   0.0000000000000000E+00
   2.8284271247461906E-01
  -2.6298050326375244E-01
   2.0618346388877201E-01
  -1.2042856974178685E-01
   1.7759840861361537E-02
   8.7403204889764219E-02
  -1.8029073025691314E-01
   2.4785695834323451E-01
  -2.8061241320573344E-01
   2.7395668855086303E-01
  -2.2882456112707372E-01
   1.5155470410844102E-01
  -5.2999439284486249E-02
  -5.2999439284486249E-02
   1.5155470410844102E-01
  -2.2882456112707372E-01
   2.7395668855086303E-01
  -2.8061241320573344E-01
   2.4785695834323451E-01
  -1.8029073025691314E-01
   8.7403204889764219E-02
   1.7759840861361537E-02
  -1.2042856974178685E-01
   2.0618346388877201E-01
  -2.6298050326375244E-01
   0.0000000000000000E+00
   0.0000000000000000E+00
   0.0000000000000000E+00
   0.0000000000000000E+00
   0.0000000000000000E+00
   0.0000000000000000E+00
   0.0000000000000000E+00
   0.0000000000000000E+00
   0.0000000000000000E+00
   0.0000000000000000E+00
   0.0000000000000000E+00
   0.0000000000000000E+00
   0.0000000000000000E+00
   0.0000000000000000E+00
   0.0000000000000000E+00
   0.0000000000000000E+00
   0.0000000000000000E+00
   0.0000000000000000E+00
   0.0000000000000000E+00
   0.0000000000000000E+00
   0.0000000000000000E+00
   0.0000000000000000E+00
   0.0000000000000000E+00
   0.0000000000000000E+00
   0.0000000000000000E+00
   2.8284271247461906E-01
  -2.8061241320573344E-01
   2.7395668855086303E-01
  -2.6298050326375244E-01
   2.4785695834323451E-01
  -2.2882456112707372E-01
   2.0618346388877201E-01
  -1.8029073025691314E-01
   1.5155470410844102E-01
  -1.2042856974178685E-01
   8.7403204889764219E-02
  -5.2999439284486249E-02
   1.7759840861361537E-02
   1.7759840861361537E-02
  -5.2999439284486249E-02
   8.7403204889764219E-02
  -1.2042856974178685E-01
   1.5155470410844102E-01
  -1.8029073025691314E-01
   2.0618346388877201E-01
  -2.2882456112707372E-01
   2.4785695834323451E-01
  -2.6298050326375244E-01
   2.7395668855086303E-01
  -2.8061241320573344E-01
   0.0000000000000000E+00
   0.0000000000000000E+00
   0.0000000000000000E+00
   0.0000000000000000E+00
   0.0000000000000000E+00
   0.0000000000000000E+00
   0.0000000000000000E+00
   0.0000000000000000E+00
   0.0000000000000000E+00
   0.0000000000000000E+00
   0.0000000000000000E+00
   0.0000000000000000E+00
   0.0000000000000000E+00
   0.0000000000000000E+00
   0.0000000000000000E+00
   0.0000000000000000E+00
   0.0000000000000000E+00
   0.0000000000000000E+00
   0.0000000000000000E+00
   0.0000000000000000E+00
   0.0000000000000000E+00
   0.0000000000000000E+00
   0.0000000000000000E+00
   0.0000000000000000E+00
   0.0000000000000000E+00
   0.0000000000000000E+00
   3.5449591744542784E-02
  -7.0340122250714482E-02
   1.0412134700984012E-01
  -1.3626051592754279E-01
   1.6625077511098138E-01
  -1.9361916025752068E-01
   2.1793405558431891E-01
  -2.3881200066705804E-01
   2.5592373783990341E-01
  -2.6899940478558299E-01
   2.7783279042533854E-01
  -2.8228458699082232E-01
   2.8228458699082232E-01
  -2.7783279042533854E-01
   2.6899940478558299E-01
  -2.5592373783990341E-01
   2.3881200066705804E-01
  -2.1793405558431891E-01
   1.9361916025752068E-01
  -1.6625077511098138E-01
   1.3626051592754279E-01
  -1.0412134700984012E-01
   7.0340122250714482E-02
  -3.5449591744542784E-02
   0.0000000000000000E+00
   0.0000000000000000E+00
   0.0000000000000000E+00
   0.0000000000000000E+00
   0.0000000000000000E+00
   0.0000000000000000E+00
   0.0000000000000000E+00
   0.0000000000000000E+00
   0.0000000000000000E+00
   0.0000000000000000E+00
   0.0000000000000000E+00
   0.0000000000000000E+00
   0.0000000000000000E+00
   0.0000000000000000E+00
   0.0000000000000000E+00
   0.0000000000000000E+00
   0.0000000000000000E+00
   0.0000000000000000E+00
   0.0000000000000000E+00
   0.0000000000000000E+00
   0.0000000000000000E+00
   0.0000000000000000E+00
   0.0000000000000000E+00
   0.0000000000000000E+00
   0.0000000000000000E+00
   0.0000000000000000E+00
   1.0412134700984012E-01
  -1.9361916025752068E-01
   2.5592373783990341E-01
  -2.8228458699082232E-01
   2.6899940478558299E-01
  -2.1793405558431891E-01
   1.3626051592754279E-01
  -3.5449591744542784E-02
  -7.0340122250714482E-02
   1.6625077511098138E-01
  -2.3881200066705804E-01
   2.7783279042533854E-01
  -2.7783279042533854E-01
   2.3881200066705804E-01
  -1.6625077511098138E-01
   7.0340122250714482E-02
   3.5449591744542784E-02
  -1.3626051592754279E-01
   2.1793405558431891E-01
  -2.6899940478558299E-01
   2.8228458699082232E-01
  -2.5592373783990341E-01
   1.9361916025752068E-01
  -1.0412134700984012E-01
   0.0000000000000000E+00
   0.0000000000000000E+00
   0.0000000000000000E+00
   0.0000000000000000E+00
   0.0000000000000000E+00
   0.0000000000000000E+00
   0.0000000000000000E+00
   0.0000000000000000E+00
   0.0000000000000000E+00
   0.0000000000000000E+00
   0.0000000000000000E+00
   0.0000000000000000E+00
   0.0000000000000000E+00
   0.0000000000000000E+00
   0.0000000000000000E+00
   0.0000000000000000E+00
   0.0000000000000000E+00
   0.0000000000000000E+00
   0.0000000000000000E+00
   0.0000000000000000E+00
   0.0000000000000000E+00
   0.0000000000000000E+00
   0.0000000000000000E+00
   0.0000000000000000E+00
   0.0000000000000000E+00
   0.0000000000000000E+00
   1.6625077511098138E-01
  -2.6899940478558299E-01
   2.6899940478558299E-01
  -1.6625077511098138E-01
   0.0000000000000000E+00
   1.6625077511098138E-01
  -2.6899940478558299E-01
   2.6899940478558299E-01
  -1.6625077511098138E-01
   0.0000000000000000E+00
   1.6625077511098138E-01
  -2.6899940478558299E-01
   2.6899940478558299E-01
  -1.6625077511098138E-01
   0.0000000000000000E+00
   1.6625077511098138E-01
  -2.6899940478558299E-01
   2.6899940478558299E-01
  -1.6625077511098138E-01
   0.0000000000000000E+00
   1.6625077511098138E-01
  -2.6899940478558299E-01
   2.6899940478558299E-01
  -1.6625077511098138E-01
   0.0000000000000000E+00
   0.0000000000000000E+00
   0.0000000000000000E+00
   0.0000000000000000E+00
   0.0000000000000000E+00
   0.0000000000000000E+00
   0.0000000000000000E+00
   0.0000000000000000E+00
   0.0000000000000000E+00
   0.0000000000000000E+00
   0.0000000000000000E+00
   0.0000000000000000E+00
   0.0000000000000000E+00
   0.0000000000000000E+00
   0.0000000000000000E+00
   0.0000000000000000E+00
   0.0000000000000000E+00
   0.0000000000000000E+00
   0.0000000000000000E+00
   0.0000000000000000E+00
   0.0000000000000000E+00
   0.0000000000000000E+00
   0.0000000000000000E+00
   0.0000000000000000E+00
   0.0000000000000000E+00
   0.0000000000000000E+00
   2.1793405558431891E-01
  -2.7783279042533854E-01
   1.3626051592754279E-01
   1.0412134700984012E-01
  -2.6899940478558299E-01
   2.3881200066705804E-01
  -3.5449591744542784E-02
  -1.9361916025752068E-01
   2.8228458699082232E-01
  -1.6625077511098138E-01
  -7.0340122250714482E-02
   2.5592373783990341E-01
  -2.5592373783990341E-01
   7.0340122250714482E-02
   1.6625077511098138E-01
  -2.8228458699082232E-01
   1.9361916025752068E-01
   3.5449591744542784E-02
  -2.3881200066705804E-01
   2.6899940478558299E-01
  -1.0412134700984012E-01
  -1.3626051592754279E-01
   2.7783279042533854E-01
  -2.1793405558431891E-01
   0.0000000000000000E+00
   0.0000000000000000E+00
   0.0000000000000000E+00
   0.0000000000000000E+00
   0.0000000000000000E+00
   0.0000000000000000E+00
   0.0000000000000000E+00
   0.0000000000000000E+00
   0.0000000000000000E+00
   0.0000000000000000E+00
   0.0000000000000000E+00
   0.0000000000000000E+00
   0.0000000000000000E+00
   0.0000000000000000E+00
   0.0000000000000000E+00
   0.0000000000000000E+00
   0.0000000000000000E+00
   0.0000000000000000E+00
   0.0000000000000000E+00
   0.0000000000000000E+00
   0.0000000000000000E+00
   0.0000000000000000E+00
   0.0000000000000000E+00
   0.0000000000000000E+00
   0.0000000000000000E+00
   0.0000000000000000E+00
   2.5592373783990341E-01
  -2.1793405558431891E-01
  -7.0340122250714482E-02
   2.7783279042533854E-01
  -1.6625077511098138E-01
  -1.3626051592754279E-01
   2.8228458699082232E-01
  -1.0412134700984012E-01
  -1.9361916025752068E-01
   2.6899940478558299E-01
  -3.5449591744542784E-02
  -2.3881200066705804E-01
   2.3881200066705804E-01
   3.5449591744542784E-02
  -2.6899940478558299E-01
   1.9361916025752068E-01
   1.0412134700984012E-01
  -2.8228458699082232E-01
   1.3626051592754279E-01
   1.6625077511098138E-01
  -2.7783279042533854E-01
   7.0340122250714482E-02
   2.1793405558431891E-01
  -2.5592373783990341E-01
   0.0000000000000000E+00
   0.0000000000000000E+00
   0.0000000000000000E+00
   0.0000000000000000E+00
   0.0000000000000000E+00
   0.0000000000000000E+00
   0.0000000000000000E+00
   0.0000000000000000E+00
   0.0000000000000000E+00
   0.0000000000000000E+00
   0.0000000000000000E+00
   0.0000000000000000E+00
   0.0000000000000000E+00
   0.0000000000000000E+00
   0.0000000000000000E+00
   0.0000000000000000E+00
   0.0000000000000000E+00
   0.0000000000000000E+00
   0.0000000000000000E+00
   0.0000000000000000E+00
   0.0000000000000000E+00
   0.0000000000000000E+00
   0.0000000000000000E+00
   0.0000000000000000E+00
   0.0000000000000000E+00
   0.0000000000000000E+00
   2.7783279042533854E-01
  -1.0412134700984012E-01
  -2.3881200066705804E-01
   1.9361916025752068E-01
   1.6625077511098138E-01
  -2.5592373783990341E-01
  -7.0340122250714482E-02
   2.8228458699082232E-01
  -3.5449591744542784E-02
  -2.6899940478558299E-01
   1.3626051592754279E-01
   2.1793405558431891E-01
  -2.1793405558431891E-01
  -1.3626051592754279E-01
   2.6899940478558299E-01
   3.5449591744542784E-02
  -2.8228458699082232E-01
   7.0340122250714482E-02
   2.5592373783990341E-01
  -1.6625077511098138E-01
  -1.9361916025752068E-01
   2.3881200066705804E-01
   1.0412134700984012E-01
  -2.7783279042533854E-01
   0.0000000000000000E+00
   0.0000000000000000E+00
   0.0000000000000000E+00
   0.0000000000000000E+00
   0.0000000000000000E+00
   0.0000000000000000E+00
   0.0000000000000000E+00
   0.0000000000000000E+00
   0.0000000000000000E+00
   0.0000000000000000E+00
   0.0000000000000000E+00
   0.0000000000000000E+00
   0.0000000000000000E+00
   0.0000000000000000E+00
   0.0000000000000000E+00
   0.0000000000000000E+00
   0.0000000000000000E+00
   0.0000000000000000E+00
   0.0000000000000000E+00
   0.0000000000000000E+00
   0.0000000000000000E+00
   0.0000000000000000E+00
   0.0000000000000000E+00
   0.0000000000000000E+00
   0.0000000000000000E+00
   0.0000000000000000E+00
   2.8228458699082232E-01
   3.5449591744542784E-02
  -2.7783279042533854E-01
  -7.0340122250714482E-02
   2.6899940478558299E-01
   1.0412134700984012E-01
  -2.5592373783990341E-01
  -1.3626051592754279E-01
   2.3881200066705804E-01
   1.6625077511098138E-01
  -2.1793405558431891E-01
  -1.9361916025752068E-01
   1.9361916025752068E-01
   2.1793405558431891E-01
  -1.6625077511098138E-01
  -2.3881200066705804E-01
   1.3626051592754279E-01
   2.5592373783990341E-01
  -1.0412134700984012E-01
  -2.6899940478558299E-01
   7.0340122250714482E-02
   2.7783279042533854E-01
  -3.5449591744542784E-02
  -2.8228458699082232E-01
   0.0000000000000000E+00
   0.0000000000000000E+00
   0.0000000000000000E+00
   0.0000000000000000E+00
   0.0000000000000000E+00
   0.0000000000000000E+00
   0.0000000000000000E+00
   0.0000000000000000E+00
   0.0000000000000000E+00
   0.0000000000000000E+00
   0.0000000000000000E+00
   0.0000000000000000E+00
   0.0000000000000000E+00
   0.0000000000000000E+00
   0.0000000000000000E+00
   0.0000000000000000E+00
   0.0000000000000000E+00
   0.0000000000000000E+00
   0.0000000000000000E+00
   0.0000000000000000E+00
   0.0000000000000000E+00
   0.0000000000000000E+00
   0.0000000000000000E+00
   0.0000000000000000E+00
   0.0000000000000000E+00
   0.0000000000000000E+00
   2.6899940478558299E-01
   1.6625077511098138E-01
  -1.6625077511098138E-01
  -2.6899940478558299E-01
   0.0000000000000000E+00
   2.6899940478558299E-01
   1.6625077511098138E-01
  -1.6625077511098138E-01
  -2.6899940478558299E-01
   0.0000000000000000E+00
   2.6899940478558299E-01
   1.6625077511098138E-01
  -1.6625077511098138E-01
  -2.6899940478558299E-01
   0.0000000000000000E+00
   2.6899940478558299E-01
   1.6625077511098138E-01
  -1.6625077511098138E-01
  -2.6899940478558299E-01
   0.0000000000000000E+00
   2.6899940478558299E-01
   1.6625077511098138E-01
  -1.6625077511098138E-01
  -2.6899940478558299E-01
   0.0000000000000000E+00
   0.0000000000000000E+00
   0.0000000000000000E+00
   0.0000000000000000E+00
   0.0000000000000000E+00
   0.0000000000000000E+00
   0.0000000000000000E+00
   0.0000000000000000E+00
   0.0000000000000000E+00
   0.0000000000000000E+00
   0.0000000000000000E+00
   0.0000000000000000E+00
   0.0000000000000000E+00
   0.0000000000000000E+00
   0.0000000000000000E+00
   0.0000000000000000E+00
   0.0000000000000000E+00
   0.0000000000000000E+00
   0.0000000000000000E+00
   0.0000000000000000E+00
   0.0000000000000000E+00
   0.0000000000000000E+00
   0.0000000000000000E+00
   0.0000000000000000E+00
   0.0000000000000000E+00
   0.0000000000000000E+00
   2.3881200066705804E-01
   2.5592373783990341E-01
   3.5449591744542784E-02
  -2.1793405558431891E-01
  -2.6899940478558299E-01
  -7.0340122250714482E-02
   1.9361916025752068E-01
   2.7783279042533854E-01
   1.0412134700984012E-01
  -1.6625077511098138E-01
  -2.8228458699082232E-01
  -1.3626051592754279E-01
   1.3626051592754279E-01
   2.8228458699082232E-01
   1.6625077511098138E-01
  -1.0412134700984012E-01
  -2.7783279042533854E-01
  -1.9361916025752068E-01
   7.0340122250714482E-02
   2.6899940478558299E-01
   2.1793405558431891E-01
  -3.5449591744542784E-02
  -2.5592373783990341E-01
  -2.3881200066705804E-01
   0.0000000000000000E+00
   0.0000000000000000E+00
   0.0000000000000000E+00
   0.0000000000000000E+00
   0.0000000000000000E+00
   0.0000000000000000E+00
   0.0000000000000000E+00
   0.0000000000000000E+00
   0.0000000000000000E+00
   0.0000000000000000E+00
   0.0000000000000000E+00
   0.0000000000000000E+00
   0.0000000000000000E+00
   0.0000000000000000E+00
   0.0000000000000000E+00
   0.0000000000000000E+00
   0.0000000000000000E+00
   0.0000000000000000E+00
   0.0000000000000000E+00
   0.0000000000000000E+00
   0.0000000000000000E+00
   0.0000000000000000E+00
   0.0000000000000000E+00
   0.0000000000000000E+00
   0.0000000000000000E+00
   0.0000000000000000E+00
   1.9361916025752068E-01
   2.8228458699082232E-01
   2.1793405558431891E-01
   3.5449591744542784E-02
  -1.6625077511098138E-01
  -2.7783279042533854E-01
  -2.3881200066705804E-01
  -7.0340122250714482E-02
   1.3626051592754279E-01
   2.6899940478558299E-01
   2.5592373783990341E-01
   1.0412134700984012E-01
  -1.0412134700984012E-01
  -2.5592373783990341E-01
  -2.6899940478558299E-01
  -1.3626051592754279E-01
   7.0340122250714482E-02
   2.3881200066705804E-01
   2.7783279042533854E-01
   1.6625077511098138E-01
  -3.5449591744542784E-02
  -2.1793405558431891E-01
  -2.8228458699082232E-01
  -1.9361916025752068E-01
   0.0000000000000000E+00
   0.0000000000000000E+00
   0.0000000000000000E+00
   0.0000000000000000E+00
   0.0000000000000000E+00
   0.0000000000000000E+00
   0.0000000000000000E+00
   0.0000000000000000E+00
   0.0000000000000000E+00
   0.0000000000000000E+00
   0.0000000000000000E+00
   0.0000000000000000E+00
   0.0000000000000000E+00
   0.0000000000000000E+00
   0.0000000000000000E+00
   0.0000000000000000E+00
   0.0000000000000000E+00
   0.0000000000000000E+00
   0.0000000000000000E+00
   0.0000000000000000E+00
   0.0000000000000000E+00
   0.0000000000000000E+00
   0.0000000000000000E+00
   0.0000000000000000E+00
   0.0000000000000000E+00
   0.0000000000000000E+00
   1.3626051592754279E-01
   2.3881200066705804E-01
   2.8228458699082232E-01
   2.5592373783990341E-01
   1.6625077511098138E-01
   3.5449591744542784E-02
  -1.0412134700984012E-01
  -2.1793405558431891E-01
  -2.7783279042533854E-01
  -2.6899940478558299E-01
  -1.9361916025752068E-01
  -7.0340122250714482E-02
   7.0340122250714482E-02
   1.9361916025752068E-01
   2.6899940478558299E-01
   2.7783279042533854E-01
   2.1793405558431891E-01
   1.0412134700984012E-01
  -3.5449591744542784E-02
  -1.6625077511098138E-01
  -2.5592373783990341E-01
  -2.8228458699082232E-01
  -2.3881200066705804E-01
  -1.3626051592754279E-01
   0.0000000000000000E+00
   0.0000000000000000E+00
   0.0000000000000000E+00
   0.0000000000000000E+00
   0.0000000000000000E+00
   0.0000000000000000E+00
   0.0000000000000000E+00
   0.0000000000000000E+00
   0.0000000000000000E+00
   0.0000000000000000E+00
   0.0000000000000000E+00
   0.0000000000000000E+00
   0.0000000000000000E+00
   0.0000000000000000E+00
   0.0000000000000000E+00
   0.0000000000000000E+00
   0.0000000000000000E+00
   0.0000000000000000E+00
   0.0000000000000000E+00
   0.0000000000000000E+00
   0.0000000000000000E+00
   0.0000000000000000E+00
   0.0000000000000000E+00
   0.0000000000000000E+00
   0.0000000000000000E+00
   0.0000000000000000E+00
   7.0340122250714482E-02
   1.3626051592754279E-01
   1.9361916025752068E-01
   2.3881200066705804E-01
   2.6899940478558299E-01
   2.8228458699082232E-01
   2.7783279042533854E-01
   2.5592373783990341E-01
   2.1793405558431891E-01
   1.6625077511098138E-01
   1.0412134700984012E-01
   3.5449591744542784E-02
  -3.5449591744542784E-02
  -1.0412134700984012E-01
  -1.6625077511098138E-01
  -2.1793405558431891E-01
  -2.5592373783990341E-01
  -2.7783279042533854E-01
  -2.8228458699082232E-01
  -2.6899940478558299E-01
  -2.3881200066705804E-01
  -1.9361916025752068E-01
  -1.3626051592754279E-01
  -7.0340122250714482E-02
